Maximize 
c_n0n1n2 + c_n3n1n2 + c_n3n1n7 + c_n3n4n5 + c_n6n7n8 

Subject To 
y_n0n1 + y_n1n2 - y_n0n2 >= 0
- y_n0n1 - y_n1n2 + y_n0n2 >= - 1
y_n0n1 + y_n1n3 - y_n0n3 >= 0
- y_n0n1 - y_n1n3 + y_n0n3 >= - 1
y_n0n1 + y_n1n4 - y_n0n4 >= 0
- y_n0n1 - y_n1n4 + y_n0n4 >= - 1
y_n0n1 + y_n1n5 - y_n0n5 >= 0
- y_n0n1 - y_n1n5 + y_n0n5 >= - 1
y_n0n1 + y_n1n6 - y_n0n6 >= 0
- y_n0n1 - y_n1n6 + y_n0n6 >= - 1
y_n0n1 + y_n1n7 - y_n0n7 >= 0
- y_n0n1 - y_n1n7 + y_n0n7 >= - 1
y_n0n1 + y_n1n8 - y_n0n8 >= 0
- y_n0n1 - y_n1n8 + y_n0n8 >= - 1
y_n0n2 + y_n2n3 - y_n0n3 >= 0
- y_n0n2 - y_n2n3 + y_n0n3 >= - 1
y_n0n2 + y_n2n4 - y_n0n4 >= 0
- y_n0n2 - y_n2n4 + y_n0n4 >= - 1
y_n0n2 + y_n2n5 - y_n0n5 >= 0
- y_n0n2 - y_n2n5 + y_n0n5 >= - 1
y_n0n2 + y_n2n6 - y_n0n6 >= 0
- y_n0n2 - y_n2n6 + y_n0n6 >= - 1
y_n0n2 + y_n2n7 - y_n0n7 >= 0
- y_n0n2 - y_n2n7 + y_n0n7 >= - 1
y_n0n2 + y_n2n8 - y_n0n8 >= 0
- y_n0n2 - y_n2n8 + y_n0n8 >= - 1
y_n0n3 + y_n3n4 - y_n0n4 >= 0
- y_n0n3 - y_n3n4 + y_n0n4 >= - 1
y_n0n3 + y_n3n5 - y_n0n5 >= 0
- y_n0n3 - y_n3n5 + y_n0n5 >= - 1
y_n0n3 + y_n3n6 - y_n0n6 >= 0
- y_n0n3 - y_n3n6 + y_n0n6 >= - 1
y_n0n3 + y_n3n7 - y_n0n7 >= 0
- y_n0n3 - y_n3n7 + y_n0n7 >= - 1
y_n0n3 + y_n3n8 - y_n0n8 >= 0
- y_n0n3 - y_n3n8 + y_n0n8 >= - 1
y_n0n4 + y_n4n5 - y_n0n5 >= 0
- y_n0n4 - y_n4n5 + y_n0n5 >= - 1
y_n0n4 + y_n4n6 - y_n0n6 >= 0
- y_n0n4 - y_n4n6 + y_n0n6 >= - 1
y_n0n4 + y_n4n7 - y_n0n7 >= 0
- y_n0n4 - y_n4n7 + y_n0n7 >= - 1
y_n0n4 + y_n4n8 - y_n0n8 >= 0
- y_n0n4 - y_n4n8 + y_n0n8 >= - 1
y_n0n5 + y_n5n6 - y_n0n6 >= 0
- y_n0n5 - y_n5n6 + y_n0n6 >= - 1
y_n0n5 + y_n5n7 - y_n0n7 >= 0
- y_n0n5 - y_n5n7 + y_n0n7 >= - 1
y_n0n5 + y_n5n8 - y_n0n8 >= 0
- y_n0n5 - y_n5n8 + y_n0n8 >= - 1
y_n0n6 + y_n6n7 - y_n0n7 >= 0
- y_n0n6 - y_n6n7 + y_n0n7 >= - 1
y_n0n6 + y_n6n8 - y_n0n8 >= 0
- y_n0n6 - y_n6n8 + y_n0n8 >= - 1
y_n0n7 + y_n7n8 - y_n0n8 >= 0
- y_n0n7 - y_n7n8 + y_n0n8 >= - 1
y_n1n2 + y_n2n3 - y_n1n3 >= 0
- y_n1n2 - y_n2n3 + y_n1n3 >= - 1
y_n1n2 + y_n2n4 - y_n1n4 >= 0
- y_n1n2 - y_n2n4 + y_n1n4 >= - 1
y_n1n2 + y_n2n5 - y_n1n5 >= 0
- y_n1n2 - y_n2n5 + y_n1n5 >= - 1
y_n1n2 + y_n2n6 - y_n1n6 >= 0
- y_n1n2 - y_n2n6 + y_n1n6 >= - 1
y_n1n2 + y_n2n7 - y_n1n7 >= 0
- y_n1n2 - y_n2n7 + y_n1n7 >= - 1
y_n1n2 + y_n2n8 - y_n1n8 >= 0
- y_n1n2 - y_n2n8 + y_n1n8 >= - 1
y_n1n3 + y_n3n4 - y_n1n4 >= 0
- y_n1n3 - y_n3n4 + y_n1n4 >= - 1
y_n1n3 + y_n3n5 - y_n1n5 >= 0
- y_n1n3 - y_n3n5 + y_n1n5 >= - 1
y_n1n3 + y_n3n6 - y_n1n6 >= 0
- y_n1n3 - y_n3n6 + y_n1n6 >= - 1
y_n1n3 + y_n3n7 - y_n1n7 >= 0
- y_n1n3 - y_n3n7 + y_n1n7 >= - 1
y_n1n3 + y_n3n8 - y_n1n8 >= 0
- y_n1n3 - y_n3n8 + y_n1n8 >= - 1
y_n1n4 + y_n4n5 - y_n1n5 >= 0
- y_n1n4 - y_n4n5 + y_n1n5 >= - 1
y_n1n4 + y_n4n6 - y_n1n6 >= 0
- y_n1n4 - y_n4n6 + y_n1n6 >= - 1
y_n1n4 + y_n4n7 - y_n1n7 >= 0
- y_n1n4 - y_n4n7 + y_n1n7 >= - 1
y_n1n4 + y_n4n8 - y_n1n8 >= 0
- y_n1n4 - y_n4n8 + y_n1n8 >= - 1
y_n1n5 + y_n5n6 - y_n1n6 >= 0
- y_n1n5 - y_n5n6 + y_n1n6 >= - 1
y_n1n5 + y_n5n7 - y_n1n7 >= 0
- y_n1n5 - y_n5n7 + y_n1n7 >= - 1
y_n1n5 + y_n5n8 - y_n1n8 >= 0
- y_n1n5 - y_n5n8 + y_n1n8 >= - 1
y_n1n6 + y_n6n7 - y_n1n7 >= 0
- y_n1n6 - y_n6n7 + y_n1n7 >= - 1
y_n1n6 + y_n6n8 - y_n1n8 >= 0
- y_n1n6 - y_n6n8 + y_n1n8 >= - 1
y_n1n7 + y_n7n8 - y_n1n8 >= 0
- y_n1n7 - y_n7n8 + y_n1n8 >= - 1
y_n2n3 + y_n3n4 - y_n2n4 >= 0
- y_n2n3 - y_n3n4 + y_n2n4 >= - 1
y_n2n3 + y_n3n5 - y_n2n5 >= 0
- y_n2n3 - y_n3n5 + y_n2n5 >= - 1
y_n2n3 + y_n3n6 - y_n2n6 >= 0
- y_n2n3 - y_n3n6 + y_n2n6 >= - 1
y_n2n3 + y_n3n7 - y_n2n7 >= 0
- y_n2n3 - y_n3n7 + y_n2n7 >= - 1
y_n2n3 + y_n3n8 - y_n2n8 >= 0
- y_n2n3 - y_n3n8 + y_n2n8 >= - 1
y_n2n4 + y_n4n5 - y_n2n5 >= 0
- y_n2n4 - y_n4n5 + y_n2n5 >= - 1
y_n2n4 + y_n4n6 - y_n2n6 >= 0
- y_n2n4 - y_n4n6 + y_n2n6 >= - 1
y_n2n4 + y_n4n7 - y_n2n7 >= 0
- y_n2n4 - y_n4n7 + y_n2n7 >= - 1
y_n2n4 + y_n4n8 - y_n2n8 >= 0
- y_n2n4 - y_n4n8 + y_n2n8 >= - 1
y_n2n5 + y_n5n6 - y_n2n6 >= 0
- y_n2n5 - y_n5n6 + y_n2n6 >= - 1
y_n2n5 + y_n5n7 - y_n2n7 >= 0
- y_n2n5 - y_n5n7 + y_n2n7 >= - 1
y_n2n5 + y_n5n8 - y_n2n8 >= 0
- y_n2n5 - y_n5n8 + y_n2n8 >= - 1
y_n2n6 + y_n6n7 - y_n2n7 >= 0
- y_n2n6 - y_n6n7 + y_n2n7 >= - 1
y_n2n6 + y_n6n8 - y_n2n8 >= 0
- y_n2n6 - y_n6n8 + y_n2n8 >= - 1
y_n2n7 + y_n7n8 - y_n2n8 >= 0
- y_n2n7 - y_n7n8 + y_n2n8 >= - 1
y_n3n4 + y_n4n5 - y_n3n5 >= 0
- y_n3n4 - y_n4n5 + y_n3n5 >= - 1
y_n3n4 + y_n4n6 - y_n3n6 >= 0
- y_n3n4 - y_n4n6 + y_n3n6 >= - 1
y_n3n4 + y_n4n7 - y_n3n7 >= 0
- y_n3n4 - y_n4n7 + y_n3n7 >= - 1
y_n3n4 + y_n4n8 - y_n3n8 >= 0
- y_n3n4 - y_n4n8 + y_n3n8 >= - 1
y_n3n5 + y_n5n6 - y_n3n6 >= 0
- y_n3n5 - y_n5n6 + y_n3n6 >= - 1
y_n3n5 + y_n5n7 - y_n3n7 >= 0
- y_n3n5 - y_n5n7 + y_n3n7 >= - 1
y_n3n5 + y_n5n8 - y_n3n8 >= 0
- y_n3n5 - y_n5n8 + y_n3n8 >= - 1
y_n3n6 + y_n6n7 - y_n3n7 >= 0
- y_n3n6 - y_n6n7 + y_n3n7 >= - 1
y_n3n6 + y_n6n8 - y_n3n8 >= 0
- y_n3n6 - y_n6n8 + y_n3n8 >= - 1
y_n3n7 + y_n7n8 - y_n3n8 >= 0
- y_n3n7 - y_n7n8 + y_n3n8 >= - 1
y_n4n5 + y_n5n6 - y_n4n6 >= 0
- y_n4n5 - y_n5n6 + y_n4n6 >= - 1
y_n4n5 + y_n5n7 - y_n4n7 >= 0
- y_n4n5 - y_n5n7 + y_n4n7 >= - 1
y_n4n5 + y_n5n8 - y_n4n8 >= 0
- y_n4n5 - y_n5n8 + y_n4n8 >= - 1
y_n4n6 + y_n6n7 - y_n4n7 >= 0
- y_n4n6 - y_n6n7 + y_n4n7 >= - 1
y_n4n6 + y_n6n8 - y_n4n8 >= 0
- y_n4n6 - y_n6n8 + y_n4n8 >= - 1
y_n4n7 + y_n7n8 - y_n4n8 >= 0
- y_n4n7 - y_n7n8 + y_n4n8 >= - 1
y_n5n6 + y_n6n7 - y_n5n7 >= 0
- y_n5n6 - y_n6n7 + y_n5n7 >= - 1
y_n5n6 + y_n6n8 - y_n5n8 >= 0
- y_n5n6 - y_n6n8 + y_n5n8 >= - 1
y_n5n7 + y_n7n8 - y_n5n8 >= 0
- y_n5n7 - y_n7n8 + y_n5n8 >= - 1
y_n6n7 + y_n7n8 - y_n6n8 >= 0
- y_n6n7 - y_n7n8 + y_n6n8 >= - 1
pos_n0 + y_n0n1 + y_n0n2 + y_n0n3 + y_n0n4 + y_n0n5 + y_n0n6 + y_n0n7 + y_n0n8 = 8
pos_n1 - y_n0n1 + y_n1n2 + y_n1n3 + y_n1n4 + y_n1n5 + y_n1n6 + y_n1n7 + y_n1n8 = 7
pos_n2 - y_n0n2 - y_n1n2 + y_n2n3 + y_n2n4 + y_n2n5 + y_n2n6 + y_n2n7 + y_n2n8 = 6
pos_n3 - y_n0n3 - y_n1n3 - y_n2n3 + y_n3n4 + y_n3n5 + y_n3n6 + y_n3n7 + y_n3n8 = 5
pos_n4 - y_n0n4 - y_n1n4 - y_n2n4 - y_n3n4 + y_n4n5 + y_n4n6 + y_n4n7 + y_n4n8 = 4
pos_n5 - y_n0n5 - y_n1n5 - y_n2n5 - y_n3n5 - y_n4n5 + y_n5n6 + y_n5n7 + y_n5n8 = 3
pos_n6 - y_n0n6 - y_n1n6 - y_n2n6 - y_n3n6 - y_n4n6 - y_n5n6 + y_n6n7 + y_n6n8 = 2
pos_n7 - y_n0n7 - y_n1n7 - y_n2n7 - y_n3n7 - y_n4n7 - y_n5n7 - y_n6n7 + y_n7n8 = 1
pos_n8 - y_n0n8 - y_n1n8 - y_n2n8 - y_n3n8 - y_n4n8 - y_n5n8 - y_n6n8 - y_n7n8 = 0
pos_n2 - pos_n1 + 10 z_n1n2 <= 11.01
pos_n2 - pos_n1 - 10 z_n1n2 >= -11.01
pos_n1 <= 9
pos_n2 <= 9
pos_n6 - pos_n1 + 10 z_n1n6 <= 11.01
pos_n6 - pos_n1 - 10 z_n1n6 >= -11.01
pos_n1 <= 9
pos_n6 <= 9
pos_n6 - pos_n2 + 10 z_n2n6 <= 11.01
pos_n6 - pos_n2 - 10 z_n2n6 >= -11.01
pos_n2 <= 9
pos_n6 <= 9
pos_n2 - pos_n0 + 10 z_n0n2 <= 11.01
pos_n2 - pos_n0 - 10 z_n0n2 >= -11.01
pos_n0 <= 9
pos_n2 <= 9
pos_n3 - pos_n0 + 10 z_n0n3 <= 11.01
pos_n3 - pos_n0 - 10 z_n0n3 >= -11.01
pos_n0 <= 9
pos_n3 <= 9
pos_n7 - pos_n0 + 10 z_n0n7 <= 11.01
pos_n7 - pos_n0 - 10 z_n0n7 >= -11.01
pos_n0 <= 9
pos_n7 <= 9
pos_n3 - pos_n2 + 10 z_n2n3 <= 11.01
pos_n3 - pos_n2 - 10 z_n2n3 >= -11.01
pos_n2 <= 9
pos_n3 <= 9
pos_n7 - pos_n2 + 10 z_n2n7 <= 11.01
pos_n7 - pos_n2 - 10 z_n2n7 >= -11.01
pos_n2 <= 9
pos_n7 <= 9
pos_n7 - pos_n3 + 10 z_n3n7 <= 11.01
pos_n7 - pos_n3 - 10 z_n3n7 >= -11.01
pos_n3 <= 9
pos_n7 <= 9
pos_n1 - pos_n0 + 10 z_n0n1 <= 11.01
pos_n1 - pos_n0 - 10 z_n0n1 >= -11.01
pos_n0 <= 9
pos_n1 <= 9
pos_n3 - pos_n0 + 10 z_n0n3 <= 11.01
pos_n3 - pos_n0 - 10 z_n0n3 >= -11.01
pos_n0 <= 9
pos_n3 <= 9
pos_n3 - pos_n1 + 10 z_n1n3 <= 11.01
pos_n3 - pos_n1 - 10 z_n1n3 >= -11.01
pos_n1 <= 9
pos_n3 <= 9
pos_n5 - pos_n4 + 10 z_n4n5 <= 11.01
pos_n5 - pos_n4 - 10 z_n4n5 >= -11.01
pos_n4 <= 9
pos_n5 <= 9
pos_n1 - pos_n4 + 10 z_n1n4 <= 11.01
pos_n1 - pos_n4 - 10 z_n1n4 >= -11.01
pos_n4 <= 9
pos_n1 <= 9
pos_n2 - pos_n4 + 10 z_n2n4 <= 11.01
pos_n2 - pos_n4 - 10 z_n2n4 >= -11.01
pos_n4 <= 9
pos_n2 <= 9
pos_n7 - pos_n4 + 10 z_n4n7 <= 11.01
pos_n7 - pos_n4 - 10 z_n4n7 >= -11.01
pos_n4 <= 9
pos_n7 <= 9
pos_n1 - pos_n5 + 10 z_n1n5 <= 11.01
pos_n1 - pos_n5 - 10 z_n1n5 >= -11.01
pos_n5 <= 9
pos_n1 <= 9
pos_n2 - pos_n5 + 10 z_n2n5 <= 11.01
pos_n2 - pos_n5 - 10 z_n2n5 >= -11.01
pos_n5 <= 9
pos_n2 <= 9
pos_n7 - pos_n5 + 10 z_n5n7 <= 11.01
pos_n7 - pos_n5 - 10 z_n5n7 >= -11.01
pos_n5 <= 9
pos_n7 <= 9
pos_n2 - pos_n1 + 10 z_n1n2 <= 11.01
pos_n2 - pos_n1 - 10 z_n1n2 >= -11.01
pos_n1 <= 9
pos_n2 <= 9
pos_n7 - pos_n1 + 10 z_n1n7 <= 11.01
pos_n7 - pos_n1 - 10 z_n1n7 >= -11.01
pos_n1 <= 9
pos_n7 <= 9
pos_n7 - pos_n2 + 10 z_n2n7 <= 11.01
pos_n7 - pos_n2 - 10 z_n2n7 >= -11.01
pos_n2 <= 9
pos_n7 <= 9
pos_n5 - pos_n3 + 10 z_n3n5 <= 11.01
pos_n5 - pos_n3 - 10 z_n3n5 >= -11.01
pos_n3 <= 9
pos_n5 <= 9
pos_n4 - pos_n3 + 10 z_n3n4 <= 11.01
pos_n4 - pos_n3 - 10 z_n3n4 >= -11.01
pos_n3 <= 9
pos_n4 <= 9
pos_n8 - pos_n7 + 10 z_n7n8 <= 11.01
pos_n8 - pos_n7 - 10 z_n7n8 >= -11.01
pos_n7 <= 9
pos_n8 <= 9
pos_n0 - pos_n7 + 10 z_n0n7 <= 11.01
pos_n0 - pos_n7 - 10 z_n0n7 >= -11.01
pos_n7 <= 9
pos_n0 <= 9
pos_n0 - pos_n8 + 10 z_n0n8 <= 11.01
pos_n0 - pos_n8 - 10 z_n0n8 >= -11.01
pos_n8 <= 9
pos_n0 <= 9
pos_n8 - pos_n6 + 10 z_n6n8 <= 11.01
pos_n8 - pos_n6 - 10 z_n6n8 >= -11.01
pos_n6 <= 9
pos_n8 <= 9
pos_n1 - pos_n6 + 10 z_n1n6 <= 11.01
pos_n1 - pos_n6 - 10 z_n1n6 >= -11.01
pos_n6 <= 9
pos_n1 <= 9
pos_n3 - pos_n6 + 10 z_n3n6 <= 11.01
pos_n3 - pos_n6 - 10 z_n3n6 >= -11.01
pos_n6 <= 9
pos_n3 <= 9
pos_n1 - pos_n8 + 10 z_n1n8 <= 11.01
pos_n1 - pos_n8 - 10 z_n1n8 >= -11.01
pos_n8 <= 9
pos_n1 <= 9
pos_n3 - pos_n8 + 10 z_n3n8 <= 11.01
pos_n3 - pos_n8 - 10 z_n3n8 >= -11.01
pos_n8 <= 9
pos_n3 <= 9
pos_n3 - pos_n1 + 10 z_n1n3 <= 11.01
pos_n3 - pos_n1 - 10 z_n1n3 >= -11.01
pos_n1 <= 9
pos_n3 <= 9
pos_n7 - pos_n6 + 10 z_n6n7 <= 11.01
pos_n7 - pos_n6 - 10 z_n6n7 >= -11.01
pos_n6 <= 9
pos_n7 <= 9
c_n0n1n2 - z_n0n1 - z_n0n2 - z_n1n2 = 1 
c_n3n1n2 - z_n1n3 - z_n2n3 - z_n1n2 = 1 
c_n3n1n7 - z_n1n3 - z_n3n7 - z_n1n7 = 1 
c_n3n4n5 - z_n3n4 - z_n3n5 - z_n4n5 = 1 
c_n6n7n8 - z_n6n7 - z_n6n8 - z_n7n8 = 1 

Bounds 
binary y_n0n1
binary y_n0n2
binary y_n0n3
binary y_n0n4
binary y_n0n5
binary y_n0n6
binary y_n0n7
binary y_n0n8
binary y_n1n2
binary y_n1n3
binary y_n1n4
binary y_n1n5
binary y_n1n6
binary y_n1n7
binary y_n1n8
binary y_n2n3
binary y_n2n4
binary y_n2n5
binary y_n2n6
binary y_n2n7
binary y_n2n8
binary y_n3n4
binary y_n3n5
binary y_n3n6
binary y_n3n7
binary y_n3n8
binary y_n4n5
binary y_n4n6
binary y_n4n7
binary y_n4n8
binary y_n5n6
binary y_n5n7
binary y_n5n8
binary y_n6n7
binary y_n6n8
binary y_n7n8
binary z_n1n2
binary z_n1n6
binary z_n2n6
binary z_n0n2
binary z_n0n3
binary z_n0n7
binary z_n2n3
binary z_n2n7
binary z_n3n7
binary z_n0n1
binary z_n0n3
binary z_n1n3
binary z_n4n5
binary z_n1n4
binary z_n2n4
binary z_n4n7
binary z_n1n5
binary z_n2n5
binary z_n5n7
binary z_n1n2
binary z_n1n7
binary z_n2n7
binary z_n3n5
binary z_n3n4
binary z_n7n8
binary z_n0n7
binary z_n0n8
binary z_n6n8
binary z_n1n6
binary z_n3n6
binary z_n1n8
binary z_n3n8
binary z_n1n3
binary z_n6n7

End
