Maximize 
c_n5n3n4n2n1 + c_n6n7n8n9 + c_n3n4n2n1 + c_n5n4n2n1 + c_n5n3n2n1 + c_n5n3n4n1 + c_n5n3n4n2 + c_n7n8n9 + c_n6n8n9 + c_n6n7n9 + c_n6n7n8 + c_n4n2n1 + c_n3n2n1 + c_n3n4n1 + c_n3n4n2 + c_n5n2n1 + c_n5n4n1 + c_n5n4n2 + c_n5n3n1 + c_n5n3n2 + c_n5n3n4 

Subject To 
y_n1n2 + y_n2n3 - y_n1n3 >= 0
- y_n1n2 - y_n2n3 + y_n1n3 >= - 1
y_n1n2 + y_n2n4 - y_n1n4 >= 0
- y_n1n2 - y_n2n4 + y_n1n4 >= - 1
y_n1n2 + y_n2n5 - y_n1n5 >= 0
- y_n1n2 - y_n2n5 + y_n1n5 >= - 1
y_n1n2 + y_n2n6 - y_n1n6 >= 0
- y_n1n2 - y_n2n6 + y_n1n6 >= - 1
y_n1n2 + y_n2n7 - y_n1n7 >= 0
- y_n1n2 - y_n2n7 + y_n1n7 >= - 1
y_n1n2 + y_n2n8 - y_n1n8 >= 0
- y_n1n2 - y_n2n8 + y_n1n8 >= - 1
y_n1n2 + y_n2n9 - y_n1n9 >= 0
- y_n1n2 - y_n2n9 + y_n1n9 >= - 1
y_n1n3 + y_n3n4 - y_n1n4 >= 0
- y_n1n3 - y_n3n4 + y_n1n4 >= - 1
y_n1n3 + y_n3n5 - y_n1n5 >= 0
- y_n1n3 - y_n3n5 + y_n1n5 >= - 1
y_n1n3 + y_n3n6 - y_n1n6 >= 0
- y_n1n3 - y_n3n6 + y_n1n6 >= - 1
y_n1n3 + y_n3n7 - y_n1n7 >= 0
- y_n1n3 - y_n3n7 + y_n1n7 >= - 1
y_n1n3 + y_n3n8 - y_n1n8 >= 0
- y_n1n3 - y_n3n8 + y_n1n8 >= - 1
y_n1n3 + y_n3n9 - y_n1n9 >= 0
- y_n1n3 - y_n3n9 + y_n1n9 >= - 1
y_n1n4 + y_n4n5 - y_n1n5 >= 0
- y_n1n4 - y_n4n5 + y_n1n5 >= - 1
y_n1n4 + y_n4n6 - y_n1n6 >= 0
- y_n1n4 - y_n4n6 + y_n1n6 >= - 1
y_n1n4 + y_n4n7 - y_n1n7 >= 0
- y_n1n4 - y_n4n7 + y_n1n7 >= - 1
y_n1n4 + y_n4n8 - y_n1n8 >= 0
- y_n1n4 - y_n4n8 + y_n1n8 >= - 1
y_n1n4 + y_n4n9 - y_n1n9 >= 0
- y_n1n4 - y_n4n9 + y_n1n9 >= - 1
y_n1n5 + y_n5n6 - y_n1n6 >= 0
- y_n1n5 - y_n5n6 + y_n1n6 >= - 1
y_n1n5 + y_n5n7 - y_n1n7 >= 0
- y_n1n5 - y_n5n7 + y_n1n7 >= - 1
y_n1n5 + y_n5n8 - y_n1n8 >= 0
- y_n1n5 - y_n5n8 + y_n1n8 >= - 1
y_n1n5 + y_n5n9 - y_n1n9 >= 0
- y_n1n5 - y_n5n9 + y_n1n9 >= - 1
y_n1n6 + y_n6n7 - y_n1n7 >= 0
- y_n1n6 - y_n6n7 + y_n1n7 >= - 1
y_n1n6 + y_n6n8 - y_n1n8 >= 0
- y_n1n6 - y_n6n8 + y_n1n8 >= - 1
y_n1n6 + y_n6n9 - y_n1n9 >= 0
- y_n1n6 - y_n6n9 + y_n1n9 >= - 1
y_n1n7 + y_n7n8 - y_n1n8 >= 0
- y_n1n7 - y_n7n8 + y_n1n8 >= - 1
y_n1n7 + y_n7n9 - y_n1n9 >= 0
- y_n1n7 - y_n7n9 + y_n1n9 >= - 1
y_n1n8 + y_n8n9 - y_n1n9 >= 0
- y_n1n8 - y_n8n9 + y_n1n9 >= - 1
y_n2n3 + y_n3n4 - y_n2n4 >= 0
- y_n2n3 - y_n3n4 + y_n2n4 >= - 1
y_n2n3 + y_n3n5 - y_n2n5 >= 0
- y_n2n3 - y_n3n5 + y_n2n5 >= - 1
y_n2n3 + y_n3n6 - y_n2n6 >= 0
- y_n2n3 - y_n3n6 + y_n2n6 >= - 1
y_n2n3 + y_n3n7 - y_n2n7 >= 0
- y_n2n3 - y_n3n7 + y_n2n7 >= - 1
y_n2n3 + y_n3n8 - y_n2n8 >= 0
- y_n2n3 - y_n3n8 + y_n2n8 >= - 1
y_n2n3 + y_n3n9 - y_n2n9 >= 0
- y_n2n3 - y_n3n9 + y_n2n9 >= - 1
y_n2n4 + y_n4n5 - y_n2n5 >= 0
- y_n2n4 - y_n4n5 + y_n2n5 >= - 1
y_n2n4 + y_n4n6 - y_n2n6 >= 0
- y_n2n4 - y_n4n6 + y_n2n6 >= - 1
y_n2n4 + y_n4n7 - y_n2n7 >= 0
- y_n2n4 - y_n4n7 + y_n2n7 >= - 1
y_n2n4 + y_n4n8 - y_n2n8 >= 0
- y_n2n4 - y_n4n8 + y_n2n8 >= - 1
y_n2n4 + y_n4n9 - y_n2n9 >= 0
- y_n2n4 - y_n4n9 + y_n2n9 >= - 1
y_n2n5 + y_n5n6 - y_n2n6 >= 0
- y_n2n5 - y_n5n6 + y_n2n6 >= - 1
y_n2n5 + y_n5n7 - y_n2n7 >= 0
- y_n2n5 - y_n5n7 + y_n2n7 >= - 1
y_n2n5 + y_n5n8 - y_n2n8 >= 0
- y_n2n5 - y_n5n8 + y_n2n8 >= - 1
y_n2n5 + y_n5n9 - y_n2n9 >= 0
- y_n2n5 - y_n5n9 + y_n2n9 >= - 1
y_n2n6 + y_n6n7 - y_n2n7 >= 0
- y_n2n6 - y_n6n7 + y_n2n7 >= - 1
y_n2n6 + y_n6n8 - y_n2n8 >= 0
- y_n2n6 - y_n6n8 + y_n2n8 >= - 1
y_n2n6 + y_n6n9 - y_n2n9 >= 0
- y_n2n6 - y_n6n9 + y_n2n9 >= - 1
y_n2n7 + y_n7n8 - y_n2n8 >= 0
- y_n2n7 - y_n7n8 + y_n2n8 >= - 1
y_n2n7 + y_n7n9 - y_n2n9 >= 0
- y_n2n7 - y_n7n9 + y_n2n9 >= - 1
y_n2n8 + y_n8n9 - y_n2n9 >= 0
- y_n2n8 - y_n8n9 + y_n2n9 >= - 1
y_n3n4 + y_n4n5 - y_n3n5 >= 0
- y_n3n4 - y_n4n5 + y_n3n5 >= - 1
y_n3n4 + y_n4n6 - y_n3n6 >= 0
- y_n3n4 - y_n4n6 + y_n3n6 >= - 1
y_n3n4 + y_n4n7 - y_n3n7 >= 0
- y_n3n4 - y_n4n7 + y_n3n7 >= - 1
y_n3n4 + y_n4n8 - y_n3n8 >= 0
- y_n3n4 - y_n4n8 + y_n3n8 >= - 1
y_n3n4 + y_n4n9 - y_n3n9 >= 0
- y_n3n4 - y_n4n9 + y_n3n9 >= - 1
y_n3n5 + y_n5n6 - y_n3n6 >= 0
- y_n3n5 - y_n5n6 + y_n3n6 >= - 1
y_n3n5 + y_n5n7 - y_n3n7 >= 0
- y_n3n5 - y_n5n7 + y_n3n7 >= - 1
y_n3n5 + y_n5n8 - y_n3n8 >= 0
- y_n3n5 - y_n5n8 + y_n3n8 >= - 1
y_n3n5 + y_n5n9 - y_n3n9 >= 0
- y_n3n5 - y_n5n9 + y_n3n9 >= - 1
y_n3n6 + y_n6n7 - y_n3n7 >= 0
- y_n3n6 - y_n6n7 + y_n3n7 >= - 1
y_n3n6 + y_n6n8 - y_n3n8 >= 0
- y_n3n6 - y_n6n8 + y_n3n8 >= - 1
y_n3n6 + y_n6n9 - y_n3n9 >= 0
- y_n3n6 - y_n6n9 + y_n3n9 >= - 1
y_n3n7 + y_n7n8 - y_n3n8 >= 0
- y_n3n7 - y_n7n8 + y_n3n8 >= - 1
y_n3n7 + y_n7n9 - y_n3n9 >= 0
- y_n3n7 - y_n7n9 + y_n3n9 >= - 1
y_n3n8 + y_n8n9 - y_n3n9 >= 0
- y_n3n8 - y_n8n9 + y_n3n9 >= - 1
y_n4n5 + y_n5n6 - y_n4n6 >= 0
- y_n4n5 - y_n5n6 + y_n4n6 >= - 1
y_n4n5 + y_n5n7 - y_n4n7 >= 0
- y_n4n5 - y_n5n7 + y_n4n7 >= - 1
y_n4n5 + y_n5n8 - y_n4n8 >= 0
- y_n4n5 - y_n5n8 + y_n4n8 >= - 1
y_n4n5 + y_n5n9 - y_n4n9 >= 0
- y_n4n5 - y_n5n9 + y_n4n9 >= - 1
y_n4n6 + y_n6n7 - y_n4n7 >= 0
- y_n4n6 - y_n6n7 + y_n4n7 >= - 1
y_n4n6 + y_n6n8 - y_n4n8 >= 0
- y_n4n6 - y_n6n8 + y_n4n8 >= - 1
y_n4n6 + y_n6n9 - y_n4n9 >= 0
- y_n4n6 - y_n6n9 + y_n4n9 >= - 1
y_n4n7 + y_n7n8 - y_n4n8 >= 0
- y_n4n7 - y_n7n8 + y_n4n8 >= - 1
y_n4n7 + y_n7n9 - y_n4n9 >= 0
- y_n4n7 - y_n7n9 + y_n4n9 >= - 1
y_n4n8 + y_n8n9 - y_n4n9 >= 0
- y_n4n8 - y_n8n9 + y_n4n9 >= - 1
y_n5n6 + y_n6n7 - y_n5n7 >= 0
- y_n5n6 - y_n6n7 + y_n5n7 >= - 1
y_n5n6 + y_n6n8 - y_n5n8 >= 0
- y_n5n6 - y_n6n8 + y_n5n8 >= - 1
y_n5n6 + y_n6n9 - y_n5n9 >= 0
- y_n5n6 - y_n6n9 + y_n5n9 >= - 1
y_n5n7 + y_n7n8 - y_n5n8 >= 0
- y_n5n7 - y_n7n8 + y_n5n8 >= - 1
y_n5n7 + y_n7n9 - y_n5n9 >= 0
- y_n5n7 - y_n7n9 + y_n5n9 >= - 1
y_n5n8 + y_n8n9 - y_n5n9 >= 0
- y_n5n8 - y_n8n9 + y_n5n9 >= - 1
y_n6n7 + y_n7n8 - y_n6n8 >= 0
- y_n6n7 - y_n7n8 + y_n6n8 >= - 1
y_n6n7 + y_n7n9 - y_n6n9 >= 0
- y_n6n7 - y_n7n9 + y_n6n9 >= - 1
y_n6n8 + y_n8n9 - y_n6n9 >= 0
- y_n6n8 - y_n8n9 + y_n6n9 >= - 1
y_n7n8 + y_n8n9 - y_n7n9 >= 0
- y_n7n8 - y_n8n9 + y_n7n9 >= - 1
pos_n1 + y_n1n2 + y_n1n3 + y_n1n4 + y_n1n5 + y_n1n6 + y_n1n7 + y_n1n8 + y_n1n9 = 8
pos_n2 - y_n1n2 + y_n2n3 + y_n2n4 + y_n2n5 + y_n2n6 + y_n2n7 + y_n2n8 + y_n2n9 = 7
pos_n3 - y_n1n3 - y_n2n3 + y_n3n4 + y_n3n5 + y_n3n6 + y_n3n7 + y_n3n8 + y_n3n9 = 6
pos_n4 - y_n1n4 - y_n2n4 - y_n3n4 + y_n4n5 + y_n4n6 + y_n4n7 + y_n4n8 + y_n4n9 = 5
pos_n5 - y_n1n5 - y_n2n5 - y_n3n5 - y_n4n5 + y_n5n6 + y_n5n7 + y_n5n8 + y_n5n9 = 4
pos_n6 - y_n1n6 - y_n2n6 - y_n3n6 - y_n4n6 - y_n5n6 + y_n6n7 + y_n6n8 + y_n6n9 = 3
pos_n7 - y_n1n7 - y_n2n7 - y_n3n7 - y_n4n7 - y_n5n7 - y_n6n7 + y_n7n8 + y_n7n9 = 2
pos_n8 - y_n1n8 - y_n2n8 - y_n3n8 - y_n4n8 - y_n5n8 - y_n6n8 - y_n7n8 + y_n8n9 = 1
pos_n9 - y_n1n9 - y_n2n9 - y_n3n9 - y_n4n9 - y_n5n9 - y_n6n9 - y_n7n9 - y_n8n9 = 0
pos_n3 - pos_n2 + 10 z_n2n3 <= 11.01
pos_n3 - pos_n2 - 10 z_n2n3 >= -11.01
pos_n2 <= 9
pos_n3 <= 9
pos_n6 - pos_n2 + 10 z_n2n6 <= 11.01
pos_n6 - pos_n2 - 10 z_n2n6 >= -11.01
pos_n2 <= 9
pos_n6 <= 9
pos_n6 - pos_n3 + 10 z_n3n6 <= 11.01
pos_n6 - pos_n3 - 10 z_n3n6 >= -11.01
pos_n3 <= 9
pos_n6 <= 9
pos_n3 - pos_n1 + 10 z_n1n3 <= 11.01
pos_n3 - pos_n1 - 10 z_n1n3 >= -11.01
pos_n1 <= 9
pos_n3 <= 9
pos_n4 - pos_n1 + 10 z_n1n4 <= 11.01
pos_n4 - pos_n1 - 10 z_n1n4 >= -11.01
pos_n1 <= 9
pos_n4 <= 9
pos_n5 - pos_n1 + 10 z_n1n5 <= 11.01
pos_n5 - pos_n1 - 10 z_n1n5 >= -11.01
pos_n1 <= 9
pos_n5 <= 9
pos_n4 - pos_n3 + 10 z_n3n4 <= 11.01
pos_n4 - pos_n3 - 10 z_n3n4 >= -11.01
pos_n3 <= 9
pos_n4 <= 9
pos_n5 - pos_n3 + 10 z_n3n5 <= 11.01
pos_n5 - pos_n3 - 10 z_n3n5 >= -11.01
pos_n3 <= 9
pos_n5 <= 9
pos_n5 - pos_n4 + 10 z_n4n5 <= 11.01
pos_n5 - pos_n4 - 10 z_n4n5 >= -11.01
pos_n4 <= 9
pos_n5 <= 9
pos_n2 - pos_n1 + 10 z_n1n2 <= 11.01
pos_n2 - pos_n1 - 10 z_n1n2 >= -11.01
pos_n1 <= 9
pos_n2 <= 9
pos_n4 - pos_n1 + 10 z_n1n4 <= 11.01
pos_n4 - pos_n1 - 10 z_n1n4 >= -11.01
pos_n1 <= 9
pos_n4 <= 9
pos_n9 - pos_n1 + 10 z_n1n9 <= 11.01
pos_n9 - pos_n1 - 10 z_n1n9 >= -11.01
pos_n1 <= 9
pos_n9 <= 9
pos_n4 - pos_n2 + 10 z_n2n4 <= 11.01
pos_n4 - pos_n2 - 10 z_n2n4 >= -11.01
pos_n2 <= 9
pos_n4 <= 9
pos_n9 - pos_n2 + 10 z_n2n9 <= 11.01
pos_n9 - pos_n2 - 10 z_n2n9 >= -11.01
pos_n2 <= 9
pos_n9 <= 9
pos_n9 - pos_n4 + 10 z_n4n9 <= 11.01
pos_n9 - pos_n4 - 10 z_n4n9 >= -11.01
pos_n4 <= 9
pos_n9 <= 9
pos_n3 - pos_n2 + 10 z_n2n3 <= 11.01
pos_n3 - pos_n2 - 10 z_n2n3 >= -11.01
pos_n2 <= 9
pos_n3 <= 9
pos_n5 - pos_n2 + 10 z_n2n5 <= 11.01
pos_n5 - pos_n2 - 10 z_n2n5 >= -11.01
pos_n2 <= 9
pos_n5 <= 9
pos_n5 - pos_n3 + 10 z_n3n5 <= 11.01
pos_n5 - pos_n3 - 10 z_n3n5 >= -11.01
pos_n3 <= 9
pos_n5 <= 9
pos_n4 - pos_n2 + 10 z_n2n4 <= 11.01
pos_n4 - pos_n2 - 10 z_n2n4 >= -11.01
pos_n2 <= 9
pos_n4 <= 9
pos_n6 - pos_n2 + 10 z_n2n6 <= 11.01
pos_n6 - pos_n2 - 10 z_n2n6 >= -11.01
pos_n2 <= 9
pos_n6 <= 9
pos_n6 - pos_n4 + 10 z_n4n6 <= 11.01
pos_n6 - pos_n4 - 10 z_n4n6 >= -11.01
pos_n4 <= 9
pos_n6 <= 9
pos_n8 - pos_n7 + 10 z_n7n8 <= 11.01
pos_n8 - pos_n7 - 10 z_n7n8 >= -11.01
pos_n7 <= 9
pos_n8 <= 9
pos_n9 - pos_n7 + 10 z_n7n9 <= 11.01
pos_n9 - pos_n7 - 10 z_n7n9 >= -11.01
pos_n7 <= 9
pos_n9 <= 9
pos_n1 - pos_n7 + 10 z_n1n7 <= 11.01
pos_n1 - pos_n7 - 10 z_n1n7 >= -11.01
pos_n7 <= 9
pos_n1 <= 9
pos_n5 - pos_n7 + 10 z_n5n7 <= 11.01
pos_n5 - pos_n7 - 10 z_n5n7 >= -11.01
pos_n7 <= 9
pos_n5 <= 9
pos_n9 - pos_n8 + 10 z_n8n9 <= 11.01
pos_n9 - pos_n8 - 10 z_n8n9 >= -11.01
pos_n8 <= 9
pos_n9 <= 9
pos_n1 - pos_n8 + 10 z_n1n8 <= 11.01
pos_n1 - pos_n8 - 10 z_n1n8 >= -11.01
pos_n8 <= 9
pos_n1 <= 9
pos_n5 - pos_n8 + 10 z_n5n8 <= 11.01
pos_n5 - pos_n8 - 10 z_n5n8 >= -11.01
pos_n8 <= 9
pos_n5 <= 9
pos_n1 - pos_n9 + 10 z_n1n9 <= 11.01
pos_n1 - pos_n9 - 10 z_n1n9 >= -11.01
pos_n9 <= 9
pos_n1 <= 9
pos_n5 - pos_n9 + 10 z_n5n9 <= 11.01
pos_n5 - pos_n9 - 10 z_n5n9 >= -11.01
pos_n9 <= 9
pos_n5 <= 9
pos_n5 - pos_n1 + 10 z_n1n5 <= 11.01
pos_n5 - pos_n1 - 10 z_n1n5 >= -11.01
pos_n1 <= 9
pos_n5 <= 9
pos_n8 - pos_n6 + 10 z_n6n8 <= 11.01
pos_n8 - pos_n6 - 10 z_n6n8 >= -11.01
pos_n6 <= 9
pos_n8 <= 9
pos_n7 - pos_n6 + 10 z_n6n7 <= 11.01
pos_n7 - pos_n6 - 10 z_n6n7 >= -11.01
pos_n6 <= 9
pos_n7 <= 9
pos_n9 - pos_n6 + 10 z_n6n9 <= 11.01
pos_n9 - pos_n6 - 10 z_n6n9 >= -11.01
pos_n6 <= 9
pos_n9 <= 9
pos_n9 - pos_n7 + 10 z_n7n9 <= 11.01
pos_n9 - pos_n7 - 10 z_n7n9 >= -11.01
pos_n7 <= 9
pos_n9 <= 9
pos_n8 - pos_n6 + 10 z_n6n8 <= 11.01
pos_n8 - pos_n6 - 10 z_n6n8 >= -11.01
pos_n6 <= 9
pos_n8 <= 9
pos_n3 - pos_n6 + 10 z_n3n6 <= 11.01
pos_n3 - pos_n6 - 10 z_n3n6 >= -11.01
pos_n6 <= 9
pos_n3 <= 9
pos_n3 - pos_n8 + 10 z_n3n8 <= 11.01
pos_n3 - pos_n8 - 10 z_n3n8 >= -11.01
pos_n8 <= 9
pos_n3 <= 9
c_n5n3n4n2n1 - z_n3n5 - z_n4n5 - z_n2n5 - z_n1n5 - z_n3n4 - z_n2n3 - z_n1n3 - z_n2n4 - z_n1n4 - z_n1n2 = 1 
c_n6n7n8n9 - z_n6n7 - z_n6n8 - z_n6n9 - z_n7n8 - z_n7n9 - z_n8n9 = 1 
c_n3n4n2n1 - z_n3n4 - z_n2n3 - z_n1n3 - z_n2n4 - z_n1n4 - z_n1n2 = 1 
c_n5n4n2n1 - z_n4n5 - z_n2n5 - z_n1n5 - z_n2n4 - z_n1n4 - z_n1n2 = 1 
c_n5n3n2n1 - z_n3n5 - z_n2n5 - z_n1n5 - z_n2n3 - z_n1n3 - z_n1n2 = 1 
c_n5n3n4n1 - z_n3n5 - z_n4n5 - z_n1n5 - z_n3n4 - z_n1n3 - z_n1n4 = 1 
c_n5n3n4n2 - z_n3n5 - z_n4n5 - z_n2n5 - z_n3n4 - z_n2n3 - z_n2n4 = 1 
c_n7n8n9 - z_n7n8 - z_n7n9 - z_n8n9 = 1 
c_n6n8n9 - z_n6n8 - z_n6n9 - z_n8n9 = 1 
c_n6n7n9 - z_n6n7 - z_n6n9 - z_n7n9 = 1 
c_n6n7n8 - z_n6n7 - z_n6n8 - z_n7n8 = 1 
c_n4n2n1 - z_n2n4 - z_n1n4 - z_n1n2 = 1 
c_n3n2n1 - z_n2n3 - z_n1n3 - z_n1n2 = 1 
c_n3n4n1 - z_n3n4 - z_n1n3 - z_n1n4 = 1 
c_n3n4n2 - z_n3n4 - z_n2n3 - z_n2n4 = 1 
c_n5n2n1 - z_n2n5 - z_n1n5 - z_n1n2 = 1 
c_n5n4n1 - z_n4n5 - z_n1n5 - z_n1n4 = 1 
c_n5n4n2 - z_n4n5 - z_n2n5 - z_n2n4 = 1 
c_n5n3n1 - z_n3n5 - z_n1n5 - z_n1n3 = 1 
c_n5n3n2 - z_n3n5 - z_n2n5 - z_n2n3 = 1 
c_n5n3n4 - z_n3n5 - z_n4n5 - z_n3n4 = 1 

Bounds 
binary y_n1n2
binary y_n1n3
binary y_n1n4
binary y_n1n5
binary y_n1n6
binary y_n1n7
binary y_n1n8
binary y_n1n9
binary y_n2n3
binary y_n2n4
binary y_n2n5
binary y_n2n6
binary y_n2n7
binary y_n2n8
binary y_n2n9
binary y_n3n4
binary y_n3n5
binary y_n3n6
binary y_n3n7
binary y_n3n8
binary y_n3n9
binary y_n4n5
binary y_n4n6
binary y_n4n7
binary y_n4n8
binary y_n4n9
binary y_n5n6
binary y_n5n7
binary y_n5n8
binary y_n5n9
binary y_n6n7
binary y_n6n8
binary y_n6n9
binary y_n7n8
binary y_n7n9
binary y_n8n9
binary z_n2n3
binary z_n2n6
binary z_n3n6
binary z_n1n3
binary z_n1n4
binary z_n1n5
binary z_n3n4
binary z_n3n5
binary z_n4n5
binary z_n1n2
binary z_n1n4
binary z_n1n9
binary z_n2n4
binary z_n2n9
binary z_n4n9
binary z_n2n3
binary z_n2n5
binary z_n3n5
binary z_n2n4
binary z_n2n6
binary z_n4n6
binary z_n7n8
binary z_n7n9
binary z_n1n7
binary z_n5n7
binary z_n8n9
binary z_n1n8
binary z_n5n8
binary z_n1n9
binary z_n5n9
binary z_n1n5
binary z_n6n8
binary z_n6n7
binary z_n6n9
binary z_n7n9
binary z_n6n8
binary z_n3n6
binary z_n3n8

End
