Maximize 
c_n0n1n2n3 + c_n4n5n6n7 + c_n5n16n17n13n14n15 + c_n8n9n10n11n12 + c_n13n14n15n17n18 + c_n1n2n3 + c_n0n2n3 + c_n0n1n3 + c_n0n1n2 + c_n5n6n7 + c_n4n6n7 + c_n4n5n7 + c_n4n5n6 + c_n16n17n13n14n15 + c_n5n17n13n14n15 + c_n5n16n13n14n15 + c_n5n16n17n14n15 + c_n5n16n17n13n15 + c_n5n16n17n13n14 + c_n9n10n11n12 + c_n8n10n11n12 + c_n8n9n11n12 + c_n8n9n10n12 + c_n8n9n10n11 + c_n14n15n17n18 + c_n13n15n17n18 + c_n13n14n17n18 + c_n13n14n15n18 + c_n13n14n15n17 + c_n16n13n14n15 + c_n16n17n14n15 + c_n16n17n13n15 + c_n16n17n13n14 + c_n5n13n14n15 + c_n5n17n14n15 + c_n5n17n13n15 + c_n5n17n13n14 + c_n5n16n14n15 + c_n5n16n13n15 + c_n5n16n13n14 + c_n5n16n17n15 + c_n5n16n17n14 + c_n5n16n17n13 + c_n10n11n12 + c_n9n11n12 + c_n9n10n12 + c_n9n10n11 + c_n8n11n12 + c_n8n10n12 + c_n8n10n11 + c_n8n9n12 + c_n8n9n11 + c_n8n9n10 + c_n15n17n18 + c_n14n17n18 + c_n14n15n18 + c_n14n15n17 + c_n13n17n18 + c_n13n15n18 + c_n13n15n17 + c_n13n14n18 + c_n13n14n17 + c_n13n14n15 + c_n16n14n15 + c_n16n13n15 + c_n16n13n14 + c_n16n17n15 + c_n16n17n14 + c_n16n17n13 + c_n5n14n15 + c_n5n13n15 + c_n5n13n14 + c_n5n17n15 + c_n5n17n14 + c_n5n17n13 + c_n5n16n15 + c_n5n16n14 + c_n5n16n13 + c_n5n16n17 

Subject To 
y_n0n1 + y_n1n2 - y_n0n2 >= 0
- y_n0n1 - y_n1n2 + y_n0n2 >= - 1
y_n0n1 + y_n1n3 - y_n0n3 >= 0
- y_n0n1 - y_n1n3 + y_n0n3 >= - 1
y_n0n1 + y_n1n4 - y_n0n4 >= 0
- y_n0n1 - y_n1n4 + y_n0n4 >= - 1
y_n0n1 + y_n1n5 - y_n0n5 >= 0
- y_n0n1 - y_n1n5 + y_n0n5 >= - 1
y_n0n1 + y_n1n6 - y_n0n6 >= 0
- y_n0n1 - y_n1n6 + y_n0n6 >= - 1
y_n0n1 + y_n1n7 - y_n0n7 >= 0
- y_n0n1 - y_n1n7 + y_n0n7 >= - 1
y_n0n1 + y_n1n8 - y_n0n8 >= 0
- y_n0n1 - y_n1n8 + y_n0n8 >= - 1
y_n0n1 + y_n1n9 - y_n0n9 >= 0
- y_n0n1 - y_n1n9 + y_n0n9 >= - 1
y_n0n1 + y_n1n10 - y_n0n10 >= 0
- y_n0n1 - y_n1n10 + y_n0n10 >= - 1
y_n0n1 + y_n1n11 - y_n0n11 >= 0
- y_n0n1 - y_n1n11 + y_n0n11 >= - 1
y_n0n1 + y_n1n12 - y_n0n12 >= 0
- y_n0n1 - y_n1n12 + y_n0n12 >= - 1
y_n0n1 + y_n1n13 - y_n0n13 >= 0
- y_n0n1 - y_n1n13 + y_n0n13 >= - 1
y_n0n1 + y_n1n14 - y_n0n14 >= 0
- y_n0n1 - y_n1n14 + y_n0n14 >= - 1
y_n0n1 + y_n1n15 - y_n0n15 >= 0
- y_n0n1 - y_n1n15 + y_n0n15 >= - 1
y_n0n1 + y_n1n16 - y_n0n16 >= 0
- y_n0n1 - y_n1n16 + y_n0n16 >= - 1
y_n0n1 + y_n1n17 - y_n0n17 >= 0
- y_n0n1 - y_n1n17 + y_n0n17 >= - 1
y_n0n1 + y_n1n18 - y_n0n18 >= 0
- y_n0n1 - y_n1n18 + y_n0n18 >= - 1
y_n0n2 + y_n2n3 - y_n0n3 >= 0
- y_n0n2 - y_n2n3 + y_n0n3 >= - 1
y_n0n2 + y_n2n4 - y_n0n4 >= 0
- y_n0n2 - y_n2n4 + y_n0n4 >= - 1
y_n0n2 + y_n2n5 - y_n0n5 >= 0
- y_n0n2 - y_n2n5 + y_n0n5 >= - 1
y_n0n2 + y_n2n6 - y_n0n6 >= 0
- y_n0n2 - y_n2n6 + y_n0n6 >= - 1
y_n0n2 + y_n2n7 - y_n0n7 >= 0
- y_n0n2 - y_n2n7 + y_n0n7 >= - 1
y_n0n2 + y_n2n8 - y_n0n8 >= 0
- y_n0n2 - y_n2n8 + y_n0n8 >= - 1
y_n0n2 + y_n2n9 - y_n0n9 >= 0
- y_n0n2 - y_n2n9 + y_n0n9 >= - 1
y_n0n2 + y_n2n10 - y_n0n10 >= 0
- y_n0n2 - y_n2n10 + y_n0n10 >= - 1
y_n0n2 + y_n2n11 - y_n0n11 >= 0
- y_n0n2 - y_n2n11 + y_n0n11 >= - 1
y_n0n2 + y_n2n12 - y_n0n12 >= 0
- y_n0n2 - y_n2n12 + y_n0n12 >= - 1
y_n0n2 + y_n2n13 - y_n0n13 >= 0
- y_n0n2 - y_n2n13 + y_n0n13 >= - 1
y_n0n2 + y_n2n14 - y_n0n14 >= 0
- y_n0n2 - y_n2n14 + y_n0n14 >= - 1
y_n0n2 + y_n2n15 - y_n0n15 >= 0
- y_n0n2 - y_n2n15 + y_n0n15 >= - 1
y_n0n2 + y_n2n16 - y_n0n16 >= 0
- y_n0n2 - y_n2n16 + y_n0n16 >= - 1
y_n0n2 + y_n2n17 - y_n0n17 >= 0
- y_n0n2 - y_n2n17 + y_n0n17 >= - 1
y_n0n2 + y_n2n18 - y_n0n18 >= 0
- y_n0n2 - y_n2n18 + y_n0n18 >= - 1
y_n0n3 + y_n3n4 - y_n0n4 >= 0
- y_n0n3 - y_n3n4 + y_n0n4 >= - 1
y_n0n3 + y_n3n5 - y_n0n5 >= 0
- y_n0n3 - y_n3n5 + y_n0n5 >= - 1
y_n0n3 + y_n3n6 - y_n0n6 >= 0
- y_n0n3 - y_n3n6 + y_n0n6 >= - 1
y_n0n3 + y_n3n7 - y_n0n7 >= 0
- y_n0n3 - y_n3n7 + y_n0n7 >= - 1
y_n0n3 + y_n3n8 - y_n0n8 >= 0
- y_n0n3 - y_n3n8 + y_n0n8 >= - 1
y_n0n3 + y_n3n9 - y_n0n9 >= 0
- y_n0n3 - y_n3n9 + y_n0n9 >= - 1
y_n0n3 + y_n3n10 - y_n0n10 >= 0
- y_n0n3 - y_n3n10 + y_n0n10 >= - 1
y_n0n3 + y_n3n11 - y_n0n11 >= 0
- y_n0n3 - y_n3n11 + y_n0n11 >= - 1
y_n0n3 + y_n3n12 - y_n0n12 >= 0
- y_n0n3 - y_n3n12 + y_n0n12 >= - 1
y_n0n3 + y_n3n13 - y_n0n13 >= 0
- y_n0n3 - y_n3n13 + y_n0n13 >= - 1
y_n0n3 + y_n3n14 - y_n0n14 >= 0
- y_n0n3 - y_n3n14 + y_n0n14 >= - 1
y_n0n3 + y_n3n15 - y_n0n15 >= 0
- y_n0n3 - y_n3n15 + y_n0n15 >= - 1
y_n0n3 + y_n3n16 - y_n0n16 >= 0
- y_n0n3 - y_n3n16 + y_n0n16 >= - 1
y_n0n3 + y_n3n17 - y_n0n17 >= 0
- y_n0n3 - y_n3n17 + y_n0n17 >= - 1
y_n0n3 + y_n3n18 - y_n0n18 >= 0
- y_n0n3 - y_n3n18 + y_n0n18 >= - 1
y_n0n4 + y_n4n5 - y_n0n5 >= 0
- y_n0n4 - y_n4n5 + y_n0n5 >= - 1
y_n0n4 + y_n4n6 - y_n0n6 >= 0
- y_n0n4 - y_n4n6 + y_n0n6 >= - 1
y_n0n4 + y_n4n7 - y_n0n7 >= 0
- y_n0n4 - y_n4n7 + y_n0n7 >= - 1
y_n0n4 + y_n4n8 - y_n0n8 >= 0
- y_n0n4 - y_n4n8 + y_n0n8 >= - 1
y_n0n4 + y_n4n9 - y_n0n9 >= 0
- y_n0n4 - y_n4n9 + y_n0n9 >= - 1
y_n0n4 + y_n4n10 - y_n0n10 >= 0
- y_n0n4 - y_n4n10 + y_n0n10 >= - 1
y_n0n4 + y_n4n11 - y_n0n11 >= 0
- y_n0n4 - y_n4n11 + y_n0n11 >= - 1
y_n0n4 + y_n4n12 - y_n0n12 >= 0
- y_n0n4 - y_n4n12 + y_n0n12 >= - 1
y_n0n4 + y_n4n13 - y_n0n13 >= 0
- y_n0n4 - y_n4n13 + y_n0n13 >= - 1
y_n0n4 + y_n4n14 - y_n0n14 >= 0
- y_n0n4 - y_n4n14 + y_n0n14 >= - 1
y_n0n4 + y_n4n15 - y_n0n15 >= 0
- y_n0n4 - y_n4n15 + y_n0n15 >= - 1
y_n0n4 + y_n4n16 - y_n0n16 >= 0
- y_n0n4 - y_n4n16 + y_n0n16 >= - 1
y_n0n4 + y_n4n17 - y_n0n17 >= 0
- y_n0n4 - y_n4n17 + y_n0n17 >= - 1
y_n0n4 + y_n4n18 - y_n0n18 >= 0
- y_n0n4 - y_n4n18 + y_n0n18 >= - 1
y_n0n5 + y_n5n6 - y_n0n6 >= 0
- y_n0n5 - y_n5n6 + y_n0n6 >= - 1
y_n0n5 + y_n5n7 - y_n0n7 >= 0
- y_n0n5 - y_n5n7 + y_n0n7 >= - 1
y_n0n5 + y_n5n8 - y_n0n8 >= 0
- y_n0n5 - y_n5n8 + y_n0n8 >= - 1
y_n0n5 + y_n5n9 - y_n0n9 >= 0
- y_n0n5 - y_n5n9 + y_n0n9 >= - 1
y_n0n5 + y_n5n10 - y_n0n10 >= 0
- y_n0n5 - y_n5n10 + y_n0n10 >= - 1
y_n0n5 + y_n5n11 - y_n0n11 >= 0
- y_n0n5 - y_n5n11 + y_n0n11 >= - 1
y_n0n5 + y_n5n12 - y_n0n12 >= 0
- y_n0n5 - y_n5n12 + y_n0n12 >= - 1
y_n0n5 + y_n5n13 - y_n0n13 >= 0
- y_n0n5 - y_n5n13 + y_n0n13 >= - 1
y_n0n5 + y_n5n14 - y_n0n14 >= 0
- y_n0n5 - y_n5n14 + y_n0n14 >= - 1
y_n0n5 + y_n5n15 - y_n0n15 >= 0
- y_n0n5 - y_n5n15 + y_n0n15 >= - 1
y_n0n5 + y_n5n16 - y_n0n16 >= 0
- y_n0n5 - y_n5n16 + y_n0n16 >= - 1
y_n0n5 + y_n5n17 - y_n0n17 >= 0
- y_n0n5 - y_n5n17 + y_n0n17 >= - 1
y_n0n5 + y_n5n18 - y_n0n18 >= 0
- y_n0n5 - y_n5n18 + y_n0n18 >= - 1
y_n0n6 + y_n6n7 - y_n0n7 >= 0
- y_n0n6 - y_n6n7 + y_n0n7 >= - 1
y_n0n6 + y_n6n8 - y_n0n8 >= 0
- y_n0n6 - y_n6n8 + y_n0n8 >= - 1
y_n0n6 + y_n6n9 - y_n0n9 >= 0
- y_n0n6 - y_n6n9 + y_n0n9 >= - 1
y_n0n6 + y_n6n10 - y_n0n10 >= 0
- y_n0n6 - y_n6n10 + y_n0n10 >= - 1
y_n0n6 + y_n6n11 - y_n0n11 >= 0
- y_n0n6 - y_n6n11 + y_n0n11 >= - 1
y_n0n6 + y_n6n12 - y_n0n12 >= 0
- y_n0n6 - y_n6n12 + y_n0n12 >= - 1
y_n0n6 + y_n6n13 - y_n0n13 >= 0
- y_n0n6 - y_n6n13 + y_n0n13 >= - 1
y_n0n6 + y_n6n14 - y_n0n14 >= 0
- y_n0n6 - y_n6n14 + y_n0n14 >= - 1
y_n0n6 + y_n6n15 - y_n0n15 >= 0
- y_n0n6 - y_n6n15 + y_n0n15 >= - 1
y_n0n6 + y_n6n16 - y_n0n16 >= 0
- y_n0n6 - y_n6n16 + y_n0n16 >= - 1
y_n0n6 + y_n6n17 - y_n0n17 >= 0
- y_n0n6 - y_n6n17 + y_n0n17 >= - 1
y_n0n6 + y_n6n18 - y_n0n18 >= 0
- y_n0n6 - y_n6n18 + y_n0n18 >= - 1
y_n0n7 + y_n7n8 - y_n0n8 >= 0
- y_n0n7 - y_n7n8 + y_n0n8 >= - 1
y_n0n7 + y_n7n9 - y_n0n9 >= 0
- y_n0n7 - y_n7n9 + y_n0n9 >= - 1
y_n0n7 + y_n7n10 - y_n0n10 >= 0
- y_n0n7 - y_n7n10 + y_n0n10 >= - 1
y_n0n7 + y_n7n11 - y_n0n11 >= 0
- y_n0n7 - y_n7n11 + y_n0n11 >= - 1
y_n0n7 + y_n7n12 - y_n0n12 >= 0
- y_n0n7 - y_n7n12 + y_n0n12 >= - 1
y_n0n7 + y_n7n13 - y_n0n13 >= 0
- y_n0n7 - y_n7n13 + y_n0n13 >= - 1
y_n0n7 + y_n7n14 - y_n0n14 >= 0
- y_n0n7 - y_n7n14 + y_n0n14 >= - 1
y_n0n7 + y_n7n15 - y_n0n15 >= 0
- y_n0n7 - y_n7n15 + y_n0n15 >= - 1
y_n0n7 + y_n7n16 - y_n0n16 >= 0
- y_n0n7 - y_n7n16 + y_n0n16 >= - 1
y_n0n7 + y_n7n17 - y_n0n17 >= 0
- y_n0n7 - y_n7n17 + y_n0n17 >= - 1
y_n0n7 + y_n7n18 - y_n0n18 >= 0
- y_n0n7 - y_n7n18 + y_n0n18 >= - 1
y_n0n8 + y_n8n9 - y_n0n9 >= 0
- y_n0n8 - y_n8n9 + y_n0n9 >= - 1
y_n0n8 + y_n8n10 - y_n0n10 >= 0
- y_n0n8 - y_n8n10 + y_n0n10 >= - 1
y_n0n8 + y_n8n11 - y_n0n11 >= 0
- y_n0n8 - y_n8n11 + y_n0n11 >= - 1
y_n0n8 + y_n8n12 - y_n0n12 >= 0
- y_n0n8 - y_n8n12 + y_n0n12 >= - 1
y_n0n8 + y_n8n13 - y_n0n13 >= 0
- y_n0n8 - y_n8n13 + y_n0n13 >= - 1
y_n0n8 + y_n8n14 - y_n0n14 >= 0
- y_n0n8 - y_n8n14 + y_n0n14 >= - 1
y_n0n8 + y_n8n15 - y_n0n15 >= 0
- y_n0n8 - y_n8n15 + y_n0n15 >= - 1
y_n0n8 + y_n8n16 - y_n0n16 >= 0
- y_n0n8 - y_n8n16 + y_n0n16 >= - 1
y_n0n8 + y_n8n17 - y_n0n17 >= 0
- y_n0n8 - y_n8n17 + y_n0n17 >= - 1
y_n0n8 + y_n8n18 - y_n0n18 >= 0
- y_n0n8 - y_n8n18 + y_n0n18 >= - 1
y_n0n9 + y_n9n10 - y_n0n10 >= 0
- y_n0n9 - y_n9n10 + y_n0n10 >= - 1
y_n0n9 + y_n9n11 - y_n0n11 >= 0
- y_n0n9 - y_n9n11 + y_n0n11 >= - 1
y_n0n9 + y_n9n12 - y_n0n12 >= 0
- y_n0n9 - y_n9n12 + y_n0n12 >= - 1
y_n0n9 + y_n9n13 - y_n0n13 >= 0
- y_n0n9 - y_n9n13 + y_n0n13 >= - 1
y_n0n9 + y_n9n14 - y_n0n14 >= 0
- y_n0n9 - y_n9n14 + y_n0n14 >= - 1
y_n0n9 + y_n9n15 - y_n0n15 >= 0
- y_n0n9 - y_n9n15 + y_n0n15 >= - 1
y_n0n9 + y_n9n16 - y_n0n16 >= 0
- y_n0n9 - y_n9n16 + y_n0n16 >= - 1
y_n0n9 + y_n9n17 - y_n0n17 >= 0
- y_n0n9 - y_n9n17 + y_n0n17 >= - 1
y_n0n9 + y_n9n18 - y_n0n18 >= 0
- y_n0n9 - y_n9n18 + y_n0n18 >= - 1
y_n0n10 + y_n10n11 - y_n0n11 >= 0
- y_n0n10 - y_n10n11 + y_n0n11 >= - 1
y_n0n10 + y_n10n12 - y_n0n12 >= 0
- y_n0n10 - y_n10n12 + y_n0n12 >= - 1
y_n0n10 + y_n10n13 - y_n0n13 >= 0
- y_n0n10 - y_n10n13 + y_n0n13 >= - 1
y_n0n10 + y_n10n14 - y_n0n14 >= 0
- y_n0n10 - y_n10n14 + y_n0n14 >= - 1
y_n0n10 + y_n10n15 - y_n0n15 >= 0
- y_n0n10 - y_n10n15 + y_n0n15 >= - 1
y_n0n10 + y_n10n16 - y_n0n16 >= 0
- y_n0n10 - y_n10n16 + y_n0n16 >= - 1
y_n0n10 + y_n10n17 - y_n0n17 >= 0
- y_n0n10 - y_n10n17 + y_n0n17 >= - 1
y_n0n10 + y_n10n18 - y_n0n18 >= 0
- y_n0n10 - y_n10n18 + y_n0n18 >= - 1
y_n0n11 + y_n11n12 - y_n0n12 >= 0
- y_n0n11 - y_n11n12 + y_n0n12 >= - 1
y_n0n11 + y_n11n13 - y_n0n13 >= 0
- y_n0n11 - y_n11n13 + y_n0n13 >= - 1
y_n0n11 + y_n11n14 - y_n0n14 >= 0
- y_n0n11 - y_n11n14 + y_n0n14 >= - 1
y_n0n11 + y_n11n15 - y_n0n15 >= 0
- y_n0n11 - y_n11n15 + y_n0n15 >= - 1
y_n0n11 + y_n11n16 - y_n0n16 >= 0
- y_n0n11 - y_n11n16 + y_n0n16 >= - 1
y_n0n11 + y_n11n17 - y_n0n17 >= 0
- y_n0n11 - y_n11n17 + y_n0n17 >= - 1
y_n0n11 + y_n11n18 - y_n0n18 >= 0
- y_n0n11 - y_n11n18 + y_n0n18 >= - 1
y_n0n12 + y_n12n13 - y_n0n13 >= 0
- y_n0n12 - y_n12n13 + y_n0n13 >= - 1
y_n0n12 + y_n12n14 - y_n0n14 >= 0
- y_n0n12 - y_n12n14 + y_n0n14 >= - 1
y_n0n12 + y_n12n15 - y_n0n15 >= 0
- y_n0n12 - y_n12n15 + y_n0n15 >= - 1
y_n0n12 + y_n12n16 - y_n0n16 >= 0
- y_n0n12 - y_n12n16 + y_n0n16 >= - 1
y_n0n12 + y_n12n17 - y_n0n17 >= 0
- y_n0n12 - y_n12n17 + y_n0n17 >= - 1
y_n0n12 + y_n12n18 - y_n0n18 >= 0
- y_n0n12 - y_n12n18 + y_n0n18 >= - 1
y_n0n13 + y_n13n14 - y_n0n14 >= 0
- y_n0n13 - y_n13n14 + y_n0n14 >= - 1
y_n0n13 + y_n13n15 - y_n0n15 >= 0
- y_n0n13 - y_n13n15 + y_n0n15 >= - 1
y_n0n13 + y_n13n16 - y_n0n16 >= 0
- y_n0n13 - y_n13n16 + y_n0n16 >= - 1
y_n0n13 + y_n13n17 - y_n0n17 >= 0
- y_n0n13 - y_n13n17 + y_n0n17 >= - 1
y_n0n13 + y_n13n18 - y_n0n18 >= 0
- y_n0n13 - y_n13n18 + y_n0n18 >= - 1
y_n0n14 + y_n14n15 - y_n0n15 >= 0
- y_n0n14 - y_n14n15 + y_n0n15 >= - 1
y_n0n14 + y_n14n16 - y_n0n16 >= 0
- y_n0n14 - y_n14n16 + y_n0n16 >= - 1
y_n0n14 + y_n14n17 - y_n0n17 >= 0
- y_n0n14 - y_n14n17 + y_n0n17 >= - 1
y_n0n14 + y_n14n18 - y_n0n18 >= 0
- y_n0n14 - y_n14n18 + y_n0n18 >= - 1
y_n0n15 + y_n15n16 - y_n0n16 >= 0
- y_n0n15 - y_n15n16 + y_n0n16 >= - 1
y_n0n15 + y_n15n17 - y_n0n17 >= 0
- y_n0n15 - y_n15n17 + y_n0n17 >= - 1
y_n0n15 + y_n15n18 - y_n0n18 >= 0
- y_n0n15 - y_n15n18 + y_n0n18 >= - 1
y_n0n16 + y_n16n17 - y_n0n17 >= 0
- y_n0n16 - y_n16n17 + y_n0n17 >= - 1
y_n0n16 + y_n16n18 - y_n0n18 >= 0
- y_n0n16 - y_n16n18 + y_n0n18 >= - 1
y_n0n17 + y_n17n18 - y_n0n18 >= 0
- y_n0n17 - y_n17n18 + y_n0n18 >= - 1
y_n1n2 + y_n2n3 - y_n1n3 >= 0
- y_n1n2 - y_n2n3 + y_n1n3 >= - 1
y_n1n2 + y_n2n4 - y_n1n4 >= 0
- y_n1n2 - y_n2n4 + y_n1n4 >= - 1
y_n1n2 + y_n2n5 - y_n1n5 >= 0
- y_n1n2 - y_n2n5 + y_n1n5 >= - 1
y_n1n2 + y_n2n6 - y_n1n6 >= 0
- y_n1n2 - y_n2n6 + y_n1n6 >= - 1
y_n1n2 + y_n2n7 - y_n1n7 >= 0
- y_n1n2 - y_n2n7 + y_n1n7 >= - 1
y_n1n2 + y_n2n8 - y_n1n8 >= 0
- y_n1n2 - y_n2n8 + y_n1n8 >= - 1
y_n1n2 + y_n2n9 - y_n1n9 >= 0
- y_n1n2 - y_n2n9 + y_n1n9 >= - 1
y_n1n2 + y_n2n10 - y_n1n10 >= 0
- y_n1n2 - y_n2n10 + y_n1n10 >= - 1
y_n1n2 + y_n2n11 - y_n1n11 >= 0
- y_n1n2 - y_n2n11 + y_n1n11 >= - 1
y_n1n2 + y_n2n12 - y_n1n12 >= 0
- y_n1n2 - y_n2n12 + y_n1n12 >= - 1
y_n1n2 + y_n2n13 - y_n1n13 >= 0
- y_n1n2 - y_n2n13 + y_n1n13 >= - 1
y_n1n2 + y_n2n14 - y_n1n14 >= 0
- y_n1n2 - y_n2n14 + y_n1n14 >= - 1
y_n1n2 + y_n2n15 - y_n1n15 >= 0
- y_n1n2 - y_n2n15 + y_n1n15 >= - 1
y_n1n2 + y_n2n16 - y_n1n16 >= 0
- y_n1n2 - y_n2n16 + y_n1n16 >= - 1
y_n1n2 + y_n2n17 - y_n1n17 >= 0
- y_n1n2 - y_n2n17 + y_n1n17 >= - 1
y_n1n2 + y_n2n18 - y_n1n18 >= 0
- y_n1n2 - y_n2n18 + y_n1n18 >= - 1
y_n1n3 + y_n3n4 - y_n1n4 >= 0
- y_n1n3 - y_n3n4 + y_n1n4 >= - 1
y_n1n3 + y_n3n5 - y_n1n5 >= 0
- y_n1n3 - y_n3n5 + y_n1n5 >= - 1
y_n1n3 + y_n3n6 - y_n1n6 >= 0
- y_n1n3 - y_n3n6 + y_n1n6 >= - 1
y_n1n3 + y_n3n7 - y_n1n7 >= 0
- y_n1n3 - y_n3n7 + y_n1n7 >= - 1
y_n1n3 + y_n3n8 - y_n1n8 >= 0
- y_n1n3 - y_n3n8 + y_n1n8 >= - 1
y_n1n3 + y_n3n9 - y_n1n9 >= 0
- y_n1n3 - y_n3n9 + y_n1n9 >= - 1
y_n1n3 + y_n3n10 - y_n1n10 >= 0
- y_n1n3 - y_n3n10 + y_n1n10 >= - 1
y_n1n3 + y_n3n11 - y_n1n11 >= 0
- y_n1n3 - y_n3n11 + y_n1n11 >= - 1
y_n1n3 + y_n3n12 - y_n1n12 >= 0
- y_n1n3 - y_n3n12 + y_n1n12 >= - 1
y_n1n3 + y_n3n13 - y_n1n13 >= 0
- y_n1n3 - y_n3n13 + y_n1n13 >= - 1
y_n1n3 + y_n3n14 - y_n1n14 >= 0
- y_n1n3 - y_n3n14 + y_n1n14 >= - 1
y_n1n3 + y_n3n15 - y_n1n15 >= 0
- y_n1n3 - y_n3n15 + y_n1n15 >= - 1
y_n1n3 + y_n3n16 - y_n1n16 >= 0
- y_n1n3 - y_n3n16 + y_n1n16 >= - 1
y_n1n3 + y_n3n17 - y_n1n17 >= 0
- y_n1n3 - y_n3n17 + y_n1n17 >= - 1
y_n1n3 + y_n3n18 - y_n1n18 >= 0
- y_n1n3 - y_n3n18 + y_n1n18 >= - 1
y_n1n4 + y_n4n5 - y_n1n5 >= 0
- y_n1n4 - y_n4n5 + y_n1n5 >= - 1
y_n1n4 + y_n4n6 - y_n1n6 >= 0
- y_n1n4 - y_n4n6 + y_n1n6 >= - 1
y_n1n4 + y_n4n7 - y_n1n7 >= 0
- y_n1n4 - y_n4n7 + y_n1n7 >= - 1
y_n1n4 + y_n4n8 - y_n1n8 >= 0
- y_n1n4 - y_n4n8 + y_n1n8 >= - 1
y_n1n4 + y_n4n9 - y_n1n9 >= 0
- y_n1n4 - y_n4n9 + y_n1n9 >= - 1
y_n1n4 + y_n4n10 - y_n1n10 >= 0
- y_n1n4 - y_n4n10 + y_n1n10 >= - 1
y_n1n4 + y_n4n11 - y_n1n11 >= 0
- y_n1n4 - y_n4n11 + y_n1n11 >= - 1
y_n1n4 + y_n4n12 - y_n1n12 >= 0
- y_n1n4 - y_n4n12 + y_n1n12 >= - 1
y_n1n4 + y_n4n13 - y_n1n13 >= 0
- y_n1n4 - y_n4n13 + y_n1n13 >= - 1
y_n1n4 + y_n4n14 - y_n1n14 >= 0
- y_n1n4 - y_n4n14 + y_n1n14 >= - 1
y_n1n4 + y_n4n15 - y_n1n15 >= 0
- y_n1n4 - y_n4n15 + y_n1n15 >= - 1
y_n1n4 + y_n4n16 - y_n1n16 >= 0
- y_n1n4 - y_n4n16 + y_n1n16 >= - 1
y_n1n4 + y_n4n17 - y_n1n17 >= 0
- y_n1n4 - y_n4n17 + y_n1n17 >= - 1
y_n1n4 + y_n4n18 - y_n1n18 >= 0
- y_n1n4 - y_n4n18 + y_n1n18 >= - 1
y_n1n5 + y_n5n6 - y_n1n6 >= 0
- y_n1n5 - y_n5n6 + y_n1n6 >= - 1
y_n1n5 + y_n5n7 - y_n1n7 >= 0
- y_n1n5 - y_n5n7 + y_n1n7 >= - 1
y_n1n5 + y_n5n8 - y_n1n8 >= 0
- y_n1n5 - y_n5n8 + y_n1n8 >= - 1
y_n1n5 + y_n5n9 - y_n1n9 >= 0
- y_n1n5 - y_n5n9 + y_n1n9 >= - 1
y_n1n5 + y_n5n10 - y_n1n10 >= 0
- y_n1n5 - y_n5n10 + y_n1n10 >= - 1
y_n1n5 + y_n5n11 - y_n1n11 >= 0
- y_n1n5 - y_n5n11 + y_n1n11 >= - 1
y_n1n5 + y_n5n12 - y_n1n12 >= 0
- y_n1n5 - y_n5n12 + y_n1n12 >= - 1
y_n1n5 + y_n5n13 - y_n1n13 >= 0
- y_n1n5 - y_n5n13 + y_n1n13 >= - 1
y_n1n5 + y_n5n14 - y_n1n14 >= 0
- y_n1n5 - y_n5n14 + y_n1n14 >= - 1
y_n1n5 + y_n5n15 - y_n1n15 >= 0
- y_n1n5 - y_n5n15 + y_n1n15 >= - 1
y_n1n5 + y_n5n16 - y_n1n16 >= 0
- y_n1n5 - y_n5n16 + y_n1n16 >= - 1
y_n1n5 + y_n5n17 - y_n1n17 >= 0
- y_n1n5 - y_n5n17 + y_n1n17 >= - 1
y_n1n5 + y_n5n18 - y_n1n18 >= 0
- y_n1n5 - y_n5n18 + y_n1n18 >= - 1
y_n1n6 + y_n6n7 - y_n1n7 >= 0
- y_n1n6 - y_n6n7 + y_n1n7 >= - 1
y_n1n6 + y_n6n8 - y_n1n8 >= 0
- y_n1n6 - y_n6n8 + y_n1n8 >= - 1
y_n1n6 + y_n6n9 - y_n1n9 >= 0
- y_n1n6 - y_n6n9 + y_n1n9 >= - 1
y_n1n6 + y_n6n10 - y_n1n10 >= 0
- y_n1n6 - y_n6n10 + y_n1n10 >= - 1
y_n1n6 + y_n6n11 - y_n1n11 >= 0
- y_n1n6 - y_n6n11 + y_n1n11 >= - 1
y_n1n6 + y_n6n12 - y_n1n12 >= 0
- y_n1n6 - y_n6n12 + y_n1n12 >= - 1
y_n1n6 + y_n6n13 - y_n1n13 >= 0
- y_n1n6 - y_n6n13 + y_n1n13 >= - 1
y_n1n6 + y_n6n14 - y_n1n14 >= 0
- y_n1n6 - y_n6n14 + y_n1n14 >= - 1
y_n1n6 + y_n6n15 - y_n1n15 >= 0
- y_n1n6 - y_n6n15 + y_n1n15 >= - 1
y_n1n6 + y_n6n16 - y_n1n16 >= 0
- y_n1n6 - y_n6n16 + y_n1n16 >= - 1
y_n1n6 + y_n6n17 - y_n1n17 >= 0
- y_n1n6 - y_n6n17 + y_n1n17 >= - 1
y_n1n6 + y_n6n18 - y_n1n18 >= 0
- y_n1n6 - y_n6n18 + y_n1n18 >= - 1
y_n1n7 + y_n7n8 - y_n1n8 >= 0
- y_n1n7 - y_n7n8 + y_n1n8 >= - 1
y_n1n7 + y_n7n9 - y_n1n9 >= 0
- y_n1n7 - y_n7n9 + y_n1n9 >= - 1
y_n1n7 + y_n7n10 - y_n1n10 >= 0
- y_n1n7 - y_n7n10 + y_n1n10 >= - 1
y_n1n7 + y_n7n11 - y_n1n11 >= 0
- y_n1n7 - y_n7n11 + y_n1n11 >= - 1
y_n1n7 + y_n7n12 - y_n1n12 >= 0
- y_n1n7 - y_n7n12 + y_n1n12 >= - 1
y_n1n7 + y_n7n13 - y_n1n13 >= 0
- y_n1n7 - y_n7n13 + y_n1n13 >= - 1
y_n1n7 + y_n7n14 - y_n1n14 >= 0
- y_n1n7 - y_n7n14 + y_n1n14 >= - 1
y_n1n7 + y_n7n15 - y_n1n15 >= 0
- y_n1n7 - y_n7n15 + y_n1n15 >= - 1
y_n1n7 + y_n7n16 - y_n1n16 >= 0
- y_n1n7 - y_n7n16 + y_n1n16 >= - 1
y_n1n7 + y_n7n17 - y_n1n17 >= 0
- y_n1n7 - y_n7n17 + y_n1n17 >= - 1
y_n1n7 + y_n7n18 - y_n1n18 >= 0
- y_n1n7 - y_n7n18 + y_n1n18 >= - 1
y_n1n8 + y_n8n9 - y_n1n9 >= 0
- y_n1n8 - y_n8n9 + y_n1n9 >= - 1
y_n1n8 + y_n8n10 - y_n1n10 >= 0
- y_n1n8 - y_n8n10 + y_n1n10 >= - 1
y_n1n8 + y_n8n11 - y_n1n11 >= 0
- y_n1n8 - y_n8n11 + y_n1n11 >= - 1
y_n1n8 + y_n8n12 - y_n1n12 >= 0
- y_n1n8 - y_n8n12 + y_n1n12 >= - 1
y_n1n8 + y_n8n13 - y_n1n13 >= 0
- y_n1n8 - y_n8n13 + y_n1n13 >= - 1
y_n1n8 + y_n8n14 - y_n1n14 >= 0
- y_n1n8 - y_n8n14 + y_n1n14 >= - 1
y_n1n8 + y_n8n15 - y_n1n15 >= 0
- y_n1n8 - y_n8n15 + y_n1n15 >= - 1
y_n1n8 + y_n8n16 - y_n1n16 >= 0
- y_n1n8 - y_n8n16 + y_n1n16 >= - 1
y_n1n8 + y_n8n17 - y_n1n17 >= 0
- y_n1n8 - y_n8n17 + y_n1n17 >= - 1
y_n1n8 + y_n8n18 - y_n1n18 >= 0
- y_n1n8 - y_n8n18 + y_n1n18 >= - 1
y_n1n9 + y_n9n10 - y_n1n10 >= 0
- y_n1n9 - y_n9n10 + y_n1n10 >= - 1
y_n1n9 + y_n9n11 - y_n1n11 >= 0
- y_n1n9 - y_n9n11 + y_n1n11 >= - 1
y_n1n9 + y_n9n12 - y_n1n12 >= 0
- y_n1n9 - y_n9n12 + y_n1n12 >= - 1
y_n1n9 + y_n9n13 - y_n1n13 >= 0
- y_n1n9 - y_n9n13 + y_n1n13 >= - 1
y_n1n9 + y_n9n14 - y_n1n14 >= 0
- y_n1n9 - y_n9n14 + y_n1n14 >= - 1
y_n1n9 + y_n9n15 - y_n1n15 >= 0
- y_n1n9 - y_n9n15 + y_n1n15 >= - 1
y_n1n9 + y_n9n16 - y_n1n16 >= 0
- y_n1n9 - y_n9n16 + y_n1n16 >= - 1
y_n1n9 + y_n9n17 - y_n1n17 >= 0
- y_n1n9 - y_n9n17 + y_n1n17 >= - 1
y_n1n9 + y_n9n18 - y_n1n18 >= 0
- y_n1n9 - y_n9n18 + y_n1n18 >= - 1
y_n1n10 + y_n10n11 - y_n1n11 >= 0
- y_n1n10 - y_n10n11 + y_n1n11 >= - 1
y_n1n10 + y_n10n12 - y_n1n12 >= 0
- y_n1n10 - y_n10n12 + y_n1n12 >= - 1
y_n1n10 + y_n10n13 - y_n1n13 >= 0
- y_n1n10 - y_n10n13 + y_n1n13 >= - 1
y_n1n10 + y_n10n14 - y_n1n14 >= 0
- y_n1n10 - y_n10n14 + y_n1n14 >= - 1
y_n1n10 + y_n10n15 - y_n1n15 >= 0
- y_n1n10 - y_n10n15 + y_n1n15 >= - 1
y_n1n10 + y_n10n16 - y_n1n16 >= 0
- y_n1n10 - y_n10n16 + y_n1n16 >= - 1
y_n1n10 + y_n10n17 - y_n1n17 >= 0
- y_n1n10 - y_n10n17 + y_n1n17 >= - 1
y_n1n10 + y_n10n18 - y_n1n18 >= 0
- y_n1n10 - y_n10n18 + y_n1n18 >= - 1
y_n1n11 + y_n11n12 - y_n1n12 >= 0
- y_n1n11 - y_n11n12 + y_n1n12 >= - 1
y_n1n11 + y_n11n13 - y_n1n13 >= 0
- y_n1n11 - y_n11n13 + y_n1n13 >= - 1
y_n1n11 + y_n11n14 - y_n1n14 >= 0
- y_n1n11 - y_n11n14 + y_n1n14 >= - 1
y_n1n11 + y_n11n15 - y_n1n15 >= 0
- y_n1n11 - y_n11n15 + y_n1n15 >= - 1
y_n1n11 + y_n11n16 - y_n1n16 >= 0
- y_n1n11 - y_n11n16 + y_n1n16 >= - 1
y_n1n11 + y_n11n17 - y_n1n17 >= 0
- y_n1n11 - y_n11n17 + y_n1n17 >= - 1
y_n1n11 + y_n11n18 - y_n1n18 >= 0
- y_n1n11 - y_n11n18 + y_n1n18 >= - 1
y_n1n12 + y_n12n13 - y_n1n13 >= 0
- y_n1n12 - y_n12n13 + y_n1n13 >= - 1
y_n1n12 + y_n12n14 - y_n1n14 >= 0
- y_n1n12 - y_n12n14 + y_n1n14 >= - 1
y_n1n12 + y_n12n15 - y_n1n15 >= 0
- y_n1n12 - y_n12n15 + y_n1n15 >= - 1
y_n1n12 + y_n12n16 - y_n1n16 >= 0
- y_n1n12 - y_n12n16 + y_n1n16 >= - 1
y_n1n12 + y_n12n17 - y_n1n17 >= 0
- y_n1n12 - y_n12n17 + y_n1n17 >= - 1
y_n1n12 + y_n12n18 - y_n1n18 >= 0
- y_n1n12 - y_n12n18 + y_n1n18 >= - 1
y_n1n13 + y_n13n14 - y_n1n14 >= 0
- y_n1n13 - y_n13n14 + y_n1n14 >= - 1
y_n1n13 + y_n13n15 - y_n1n15 >= 0
- y_n1n13 - y_n13n15 + y_n1n15 >= - 1
y_n1n13 + y_n13n16 - y_n1n16 >= 0
- y_n1n13 - y_n13n16 + y_n1n16 >= - 1
y_n1n13 + y_n13n17 - y_n1n17 >= 0
- y_n1n13 - y_n13n17 + y_n1n17 >= - 1
y_n1n13 + y_n13n18 - y_n1n18 >= 0
- y_n1n13 - y_n13n18 + y_n1n18 >= - 1
y_n1n14 + y_n14n15 - y_n1n15 >= 0
- y_n1n14 - y_n14n15 + y_n1n15 >= - 1
y_n1n14 + y_n14n16 - y_n1n16 >= 0
- y_n1n14 - y_n14n16 + y_n1n16 >= - 1
y_n1n14 + y_n14n17 - y_n1n17 >= 0
- y_n1n14 - y_n14n17 + y_n1n17 >= - 1
y_n1n14 + y_n14n18 - y_n1n18 >= 0
- y_n1n14 - y_n14n18 + y_n1n18 >= - 1
y_n1n15 + y_n15n16 - y_n1n16 >= 0
- y_n1n15 - y_n15n16 + y_n1n16 >= - 1
y_n1n15 + y_n15n17 - y_n1n17 >= 0
- y_n1n15 - y_n15n17 + y_n1n17 >= - 1
y_n1n15 + y_n15n18 - y_n1n18 >= 0
- y_n1n15 - y_n15n18 + y_n1n18 >= - 1
y_n1n16 + y_n16n17 - y_n1n17 >= 0
- y_n1n16 - y_n16n17 + y_n1n17 >= - 1
y_n1n16 + y_n16n18 - y_n1n18 >= 0
- y_n1n16 - y_n16n18 + y_n1n18 >= - 1
y_n1n17 + y_n17n18 - y_n1n18 >= 0
- y_n1n17 - y_n17n18 + y_n1n18 >= - 1
y_n2n3 + y_n3n4 - y_n2n4 >= 0
- y_n2n3 - y_n3n4 + y_n2n4 >= - 1
y_n2n3 + y_n3n5 - y_n2n5 >= 0
- y_n2n3 - y_n3n5 + y_n2n5 >= - 1
y_n2n3 + y_n3n6 - y_n2n6 >= 0
- y_n2n3 - y_n3n6 + y_n2n6 >= - 1
y_n2n3 + y_n3n7 - y_n2n7 >= 0
- y_n2n3 - y_n3n7 + y_n2n7 >= - 1
y_n2n3 + y_n3n8 - y_n2n8 >= 0
- y_n2n3 - y_n3n8 + y_n2n8 >= - 1
y_n2n3 + y_n3n9 - y_n2n9 >= 0
- y_n2n3 - y_n3n9 + y_n2n9 >= - 1
y_n2n3 + y_n3n10 - y_n2n10 >= 0
- y_n2n3 - y_n3n10 + y_n2n10 >= - 1
y_n2n3 + y_n3n11 - y_n2n11 >= 0
- y_n2n3 - y_n3n11 + y_n2n11 >= - 1
y_n2n3 + y_n3n12 - y_n2n12 >= 0
- y_n2n3 - y_n3n12 + y_n2n12 >= - 1
y_n2n3 + y_n3n13 - y_n2n13 >= 0
- y_n2n3 - y_n3n13 + y_n2n13 >= - 1
y_n2n3 + y_n3n14 - y_n2n14 >= 0
- y_n2n3 - y_n3n14 + y_n2n14 >= - 1
y_n2n3 + y_n3n15 - y_n2n15 >= 0
- y_n2n3 - y_n3n15 + y_n2n15 >= - 1
y_n2n3 + y_n3n16 - y_n2n16 >= 0
- y_n2n3 - y_n3n16 + y_n2n16 >= - 1
y_n2n3 + y_n3n17 - y_n2n17 >= 0
- y_n2n3 - y_n3n17 + y_n2n17 >= - 1
y_n2n3 + y_n3n18 - y_n2n18 >= 0
- y_n2n3 - y_n3n18 + y_n2n18 >= - 1
y_n2n4 + y_n4n5 - y_n2n5 >= 0
- y_n2n4 - y_n4n5 + y_n2n5 >= - 1
y_n2n4 + y_n4n6 - y_n2n6 >= 0
- y_n2n4 - y_n4n6 + y_n2n6 >= - 1
y_n2n4 + y_n4n7 - y_n2n7 >= 0
- y_n2n4 - y_n4n7 + y_n2n7 >= - 1
y_n2n4 + y_n4n8 - y_n2n8 >= 0
- y_n2n4 - y_n4n8 + y_n2n8 >= - 1
y_n2n4 + y_n4n9 - y_n2n9 >= 0
- y_n2n4 - y_n4n9 + y_n2n9 >= - 1
y_n2n4 + y_n4n10 - y_n2n10 >= 0
- y_n2n4 - y_n4n10 + y_n2n10 >= - 1
y_n2n4 + y_n4n11 - y_n2n11 >= 0
- y_n2n4 - y_n4n11 + y_n2n11 >= - 1
y_n2n4 + y_n4n12 - y_n2n12 >= 0
- y_n2n4 - y_n4n12 + y_n2n12 >= - 1
y_n2n4 + y_n4n13 - y_n2n13 >= 0
- y_n2n4 - y_n4n13 + y_n2n13 >= - 1
y_n2n4 + y_n4n14 - y_n2n14 >= 0
- y_n2n4 - y_n4n14 + y_n2n14 >= - 1
y_n2n4 + y_n4n15 - y_n2n15 >= 0
- y_n2n4 - y_n4n15 + y_n2n15 >= - 1
y_n2n4 + y_n4n16 - y_n2n16 >= 0
- y_n2n4 - y_n4n16 + y_n2n16 >= - 1
y_n2n4 + y_n4n17 - y_n2n17 >= 0
- y_n2n4 - y_n4n17 + y_n2n17 >= - 1
y_n2n4 + y_n4n18 - y_n2n18 >= 0
- y_n2n4 - y_n4n18 + y_n2n18 >= - 1
y_n2n5 + y_n5n6 - y_n2n6 >= 0
- y_n2n5 - y_n5n6 + y_n2n6 >= - 1
y_n2n5 + y_n5n7 - y_n2n7 >= 0
- y_n2n5 - y_n5n7 + y_n2n7 >= - 1
y_n2n5 + y_n5n8 - y_n2n8 >= 0
- y_n2n5 - y_n5n8 + y_n2n8 >= - 1
y_n2n5 + y_n5n9 - y_n2n9 >= 0
- y_n2n5 - y_n5n9 + y_n2n9 >= - 1
y_n2n5 + y_n5n10 - y_n2n10 >= 0
- y_n2n5 - y_n5n10 + y_n2n10 >= - 1
y_n2n5 + y_n5n11 - y_n2n11 >= 0
- y_n2n5 - y_n5n11 + y_n2n11 >= - 1
y_n2n5 + y_n5n12 - y_n2n12 >= 0
- y_n2n5 - y_n5n12 + y_n2n12 >= - 1
y_n2n5 + y_n5n13 - y_n2n13 >= 0
- y_n2n5 - y_n5n13 + y_n2n13 >= - 1
y_n2n5 + y_n5n14 - y_n2n14 >= 0
- y_n2n5 - y_n5n14 + y_n2n14 >= - 1
y_n2n5 + y_n5n15 - y_n2n15 >= 0
- y_n2n5 - y_n5n15 + y_n2n15 >= - 1
y_n2n5 + y_n5n16 - y_n2n16 >= 0
- y_n2n5 - y_n5n16 + y_n2n16 >= - 1
y_n2n5 + y_n5n17 - y_n2n17 >= 0
- y_n2n5 - y_n5n17 + y_n2n17 >= - 1
y_n2n5 + y_n5n18 - y_n2n18 >= 0
- y_n2n5 - y_n5n18 + y_n2n18 >= - 1
y_n2n6 + y_n6n7 - y_n2n7 >= 0
- y_n2n6 - y_n6n7 + y_n2n7 >= - 1
y_n2n6 + y_n6n8 - y_n2n8 >= 0
- y_n2n6 - y_n6n8 + y_n2n8 >= - 1
y_n2n6 + y_n6n9 - y_n2n9 >= 0
- y_n2n6 - y_n6n9 + y_n2n9 >= - 1
y_n2n6 + y_n6n10 - y_n2n10 >= 0
- y_n2n6 - y_n6n10 + y_n2n10 >= - 1
y_n2n6 + y_n6n11 - y_n2n11 >= 0
- y_n2n6 - y_n6n11 + y_n2n11 >= - 1
y_n2n6 + y_n6n12 - y_n2n12 >= 0
- y_n2n6 - y_n6n12 + y_n2n12 >= - 1
y_n2n6 + y_n6n13 - y_n2n13 >= 0
- y_n2n6 - y_n6n13 + y_n2n13 >= - 1
y_n2n6 + y_n6n14 - y_n2n14 >= 0
- y_n2n6 - y_n6n14 + y_n2n14 >= - 1
y_n2n6 + y_n6n15 - y_n2n15 >= 0
- y_n2n6 - y_n6n15 + y_n2n15 >= - 1
y_n2n6 + y_n6n16 - y_n2n16 >= 0
- y_n2n6 - y_n6n16 + y_n2n16 >= - 1
y_n2n6 + y_n6n17 - y_n2n17 >= 0
- y_n2n6 - y_n6n17 + y_n2n17 >= - 1
y_n2n6 + y_n6n18 - y_n2n18 >= 0
- y_n2n6 - y_n6n18 + y_n2n18 >= - 1
y_n2n7 + y_n7n8 - y_n2n8 >= 0
- y_n2n7 - y_n7n8 + y_n2n8 >= - 1
y_n2n7 + y_n7n9 - y_n2n9 >= 0
- y_n2n7 - y_n7n9 + y_n2n9 >= - 1
y_n2n7 + y_n7n10 - y_n2n10 >= 0
- y_n2n7 - y_n7n10 + y_n2n10 >= - 1
y_n2n7 + y_n7n11 - y_n2n11 >= 0
- y_n2n7 - y_n7n11 + y_n2n11 >= - 1
y_n2n7 + y_n7n12 - y_n2n12 >= 0
- y_n2n7 - y_n7n12 + y_n2n12 >= - 1
y_n2n7 + y_n7n13 - y_n2n13 >= 0
- y_n2n7 - y_n7n13 + y_n2n13 >= - 1
y_n2n7 + y_n7n14 - y_n2n14 >= 0
- y_n2n7 - y_n7n14 + y_n2n14 >= - 1
y_n2n7 + y_n7n15 - y_n2n15 >= 0
- y_n2n7 - y_n7n15 + y_n2n15 >= - 1
y_n2n7 + y_n7n16 - y_n2n16 >= 0
- y_n2n7 - y_n7n16 + y_n2n16 >= - 1
y_n2n7 + y_n7n17 - y_n2n17 >= 0
- y_n2n7 - y_n7n17 + y_n2n17 >= - 1
y_n2n7 + y_n7n18 - y_n2n18 >= 0
- y_n2n7 - y_n7n18 + y_n2n18 >= - 1
y_n2n8 + y_n8n9 - y_n2n9 >= 0
- y_n2n8 - y_n8n9 + y_n2n9 >= - 1
y_n2n8 + y_n8n10 - y_n2n10 >= 0
- y_n2n8 - y_n8n10 + y_n2n10 >= - 1
y_n2n8 + y_n8n11 - y_n2n11 >= 0
- y_n2n8 - y_n8n11 + y_n2n11 >= - 1
y_n2n8 + y_n8n12 - y_n2n12 >= 0
- y_n2n8 - y_n8n12 + y_n2n12 >= - 1
y_n2n8 + y_n8n13 - y_n2n13 >= 0
- y_n2n8 - y_n8n13 + y_n2n13 >= - 1
y_n2n8 + y_n8n14 - y_n2n14 >= 0
- y_n2n8 - y_n8n14 + y_n2n14 >= - 1
y_n2n8 + y_n8n15 - y_n2n15 >= 0
- y_n2n8 - y_n8n15 + y_n2n15 >= - 1
y_n2n8 + y_n8n16 - y_n2n16 >= 0
- y_n2n8 - y_n8n16 + y_n2n16 >= - 1
y_n2n8 + y_n8n17 - y_n2n17 >= 0
- y_n2n8 - y_n8n17 + y_n2n17 >= - 1
y_n2n8 + y_n8n18 - y_n2n18 >= 0
- y_n2n8 - y_n8n18 + y_n2n18 >= - 1
y_n2n9 + y_n9n10 - y_n2n10 >= 0
- y_n2n9 - y_n9n10 + y_n2n10 >= - 1
y_n2n9 + y_n9n11 - y_n2n11 >= 0
- y_n2n9 - y_n9n11 + y_n2n11 >= - 1
y_n2n9 + y_n9n12 - y_n2n12 >= 0
- y_n2n9 - y_n9n12 + y_n2n12 >= - 1
y_n2n9 + y_n9n13 - y_n2n13 >= 0
- y_n2n9 - y_n9n13 + y_n2n13 >= - 1
y_n2n9 + y_n9n14 - y_n2n14 >= 0
- y_n2n9 - y_n9n14 + y_n2n14 >= - 1
y_n2n9 + y_n9n15 - y_n2n15 >= 0
- y_n2n9 - y_n9n15 + y_n2n15 >= - 1
y_n2n9 + y_n9n16 - y_n2n16 >= 0
- y_n2n9 - y_n9n16 + y_n2n16 >= - 1
y_n2n9 + y_n9n17 - y_n2n17 >= 0
- y_n2n9 - y_n9n17 + y_n2n17 >= - 1
y_n2n9 + y_n9n18 - y_n2n18 >= 0
- y_n2n9 - y_n9n18 + y_n2n18 >= - 1
y_n2n10 + y_n10n11 - y_n2n11 >= 0
- y_n2n10 - y_n10n11 + y_n2n11 >= - 1
y_n2n10 + y_n10n12 - y_n2n12 >= 0
- y_n2n10 - y_n10n12 + y_n2n12 >= - 1
y_n2n10 + y_n10n13 - y_n2n13 >= 0
- y_n2n10 - y_n10n13 + y_n2n13 >= - 1
y_n2n10 + y_n10n14 - y_n2n14 >= 0
- y_n2n10 - y_n10n14 + y_n2n14 >= - 1
y_n2n10 + y_n10n15 - y_n2n15 >= 0
- y_n2n10 - y_n10n15 + y_n2n15 >= - 1
y_n2n10 + y_n10n16 - y_n2n16 >= 0
- y_n2n10 - y_n10n16 + y_n2n16 >= - 1
y_n2n10 + y_n10n17 - y_n2n17 >= 0
- y_n2n10 - y_n10n17 + y_n2n17 >= - 1
y_n2n10 + y_n10n18 - y_n2n18 >= 0
- y_n2n10 - y_n10n18 + y_n2n18 >= - 1
y_n2n11 + y_n11n12 - y_n2n12 >= 0
- y_n2n11 - y_n11n12 + y_n2n12 >= - 1
y_n2n11 + y_n11n13 - y_n2n13 >= 0
- y_n2n11 - y_n11n13 + y_n2n13 >= - 1
y_n2n11 + y_n11n14 - y_n2n14 >= 0
- y_n2n11 - y_n11n14 + y_n2n14 >= - 1
y_n2n11 + y_n11n15 - y_n2n15 >= 0
- y_n2n11 - y_n11n15 + y_n2n15 >= - 1
y_n2n11 + y_n11n16 - y_n2n16 >= 0
- y_n2n11 - y_n11n16 + y_n2n16 >= - 1
y_n2n11 + y_n11n17 - y_n2n17 >= 0
- y_n2n11 - y_n11n17 + y_n2n17 >= - 1
y_n2n11 + y_n11n18 - y_n2n18 >= 0
- y_n2n11 - y_n11n18 + y_n2n18 >= - 1
y_n2n12 + y_n12n13 - y_n2n13 >= 0
- y_n2n12 - y_n12n13 + y_n2n13 >= - 1
y_n2n12 + y_n12n14 - y_n2n14 >= 0
- y_n2n12 - y_n12n14 + y_n2n14 >= - 1
y_n2n12 + y_n12n15 - y_n2n15 >= 0
- y_n2n12 - y_n12n15 + y_n2n15 >= - 1
y_n2n12 + y_n12n16 - y_n2n16 >= 0
- y_n2n12 - y_n12n16 + y_n2n16 >= - 1
y_n2n12 + y_n12n17 - y_n2n17 >= 0
- y_n2n12 - y_n12n17 + y_n2n17 >= - 1
y_n2n12 + y_n12n18 - y_n2n18 >= 0
- y_n2n12 - y_n12n18 + y_n2n18 >= - 1
y_n2n13 + y_n13n14 - y_n2n14 >= 0
- y_n2n13 - y_n13n14 + y_n2n14 >= - 1
y_n2n13 + y_n13n15 - y_n2n15 >= 0
- y_n2n13 - y_n13n15 + y_n2n15 >= - 1
y_n2n13 + y_n13n16 - y_n2n16 >= 0
- y_n2n13 - y_n13n16 + y_n2n16 >= - 1
y_n2n13 + y_n13n17 - y_n2n17 >= 0
- y_n2n13 - y_n13n17 + y_n2n17 >= - 1
y_n2n13 + y_n13n18 - y_n2n18 >= 0
- y_n2n13 - y_n13n18 + y_n2n18 >= - 1
y_n2n14 + y_n14n15 - y_n2n15 >= 0
- y_n2n14 - y_n14n15 + y_n2n15 >= - 1
y_n2n14 + y_n14n16 - y_n2n16 >= 0
- y_n2n14 - y_n14n16 + y_n2n16 >= - 1
y_n2n14 + y_n14n17 - y_n2n17 >= 0
- y_n2n14 - y_n14n17 + y_n2n17 >= - 1
y_n2n14 + y_n14n18 - y_n2n18 >= 0
- y_n2n14 - y_n14n18 + y_n2n18 >= - 1
y_n2n15 + y_n15n16 - y_n2n16 >= 0
- y_n2n15 - y_n15n16 + y_n2n16 >= - 1
y_n2n15 + y_n15n17 - y_n2n17 >= 0
- y_n2n15 - y_n15n17 + y_n2n17 >= - 1
y_n2n15 + y_n15n18 - y_n2n18 >= 0
- y_n2n15 - y_n15n18 + y_n2n18 >= - 1
y_n2n16 + y_n16n17 - y_n2n17 >= 0
- y_n2n16 - y_n16n17 + y_n2n17 >= - 1
y_n2n16 + y_n16n18 - y_n2n18 >= 0
- y_n2n16 - y_n16n18 + y_n2n18 >= - 1
y_n2n17 + y_n17n18 - y_n2n18 >= 0
- y_n2n17 - y_n17n18 + y_n2n18 >= - 1
y_n3n4 + y_n4n5 - y_n3n5 >= 0
- y_n3n4 - y_n4n5 + y_n3n5 >= - 1
y_n3n4 + y_n4n6 - y_n3n6 >= 0
- y_n3n4 - y_n4n6 + y_n3n6 >= - 1
y_n3n4 + y_n4n7 - y_n3n7 >= 0
- y_n3n4 - y_n4n7 + y_n3n7 >= - 1
y_n3n4 + y_n4n8 - y_n3n8 >= 0
- y_n3n4 - y_n4n8 + y_n3n8 >= - 1
y_n3n4 + y_n4n9 - y_n3n9 >= 0
- y_n3n4 - y_n4n9 + y_n3n9 >= - 1
y_n3n4 + y_n4n10 - y_n3n10 >= 0
- y_n3n4 - y_n4n10 + y_n3n10 >= - 1
y_n3n4 + y_n4n11 - y_n3n11 >= 0
- y_n3n4 - y_n4n11 + y_n3n11 >= - 1
y_n3n4 + y_n4n12 - y_n3n12 >= 0
- y_n3n4 - y_n4n12 + y_n3n12 >= - 1
y_n3n4 + y_n4n13 - y_n3n13 >= 0
- y_n3n4 - y_n4n13 + y_n3n13 >= - 1
y_n3n4 + y_n4n14 - y_n3n14 >= 0
- y_n3n4 - y_n4n14 + y_n3n14 >= - 1
y_n3n4 + y_n4n15 - y_n3n15 >= 0
- y_n3n4 - y_n4n15 + y_n3n15 >= - 1
y_n3n4 + y_n4n16 - y_n3n16 >= 0
- y_n3n4 - y_n4n16 + y_n3n16 >= - 1
y_n3n4 + y_n4n17 - y_n3n17 >= 0
- y_n3n4 - y_n4n17 + y_n3n17 >= - 1
y_n3n4 + y_n4n18 - y_n3n18 >= 0
- y_n3n4 - y_n4n18 + y_n3n18 >= - 1
y_n3n5 + y_n5n6 - y_n3n6 >= 0
- y_n3n5 - y_n5n6 + y_n3n6 >= - 1
y_n3n5 + y_n5n7 - y_n3n7 >= 0
- y_n3n5 - y_n5n7 + y_n3n7 >= - 1
y_n3n5 + y_n5n8 - y_n3n8 >= 0
- y_n3n5 - y_n5n8 + y_n3n8 >= - 1
y_n3n5 + y_n5n9 - y_n3n9 >= 0
- y_n3n5 - y_n5n9 + y_n3n9 >= - 1
y_n3n5 + y_n5n10 - y_n3n10 >= 0
- y_n3n5 - y_n5n10 + y_n3n10 >= - 1
y_n3n5 + y_n5n11 - y_n3n11 >= 0
- y_n3n5 - y_n5n11 + y_n3n11 >= - 1
y_n3n5 + y_n5n12 - y_n3n12 >= 0
- y_n3n5 - y_n5n12 + y_n3n12 >= - 1
y_n3n5 + y_n5n13 - y_n3n13 >= 0
- y_n3n5 - y_n5n13 + y_n3n13 >= - 1
y_n3n5 + y_n5n14 - y_n3n14 >= 0
- y_n3n5 - y_n5n14 + y_n3n14 >= - 1
y_n3n5 + y_n5n15 - y_n3n15 >= 0
- y_n3n5 - y_n5n15 + y_n3n15 >= - 1
y_n3n5 + y_n5n16 - y_n3n16 >= 0
- y_n3n5 - y_n5n16 + y_n3n16 >= - 1
y_n3n5 + y_n5n17 - y_n3n17 >= 0
- y_n3n5 - y_n5n17 + y_n3n17 >= - 1
y_n3n5 + y_n5n18 - y_n3n18 >= 0
- y_n3n5 - y_n5n18 + y_n3n18 >= - 1
y_n3n6 + y_n6n7 - y_n3n7 >= 0
- y_n3n6 - y_n6n7 + y_n3n7 >= - 1
y_n3n6 + y_n6n8 - y_n3n8 >= 0
- y_n3n6 - y_n6n8 + y_n3n8 >= - 1
y_n3n6 + y_n6n9 - y_n3n9 >= 0
- y_n3n6 - y_n6n9 + y_n3n9 >= - 1
y_n3n6 + y_n6n10 - y_n3n10 >= 0
- y_n3n6 - y_n6n10 + y_n3n10 >= - 1
y_n3n6 + y_n6n11 - y_n3n11 >= 0
- y_n3n6 - y_n6n11 + y_n3n11 >= - 1
y_n3n6 + y_n6n12 - y_n3n12 >= 0
- y_n3n6 - y_n6n12 + y_n3n12 >= - 1
y_n3n6 + y_n6n13 - y_n3n13 >= 0
- y_n3n6 - y_n6n13 + y_n3n13 >= - 1
y_n3n6 + y_n6n14 - y_n3n14 >= 0
- y_n3n6 - y_n6n14 + y_n3n14 >= - 1
y_n3n6 + y_n6n15 - y_n3n15 >= 0
- y_n3n6 - y_n6n15 + y_n3n15 >= - 1
y_n3n6 + y_n6n16 - y_n3n16 >= 0
- y_n3n6 - y_n6n16 + y_n3n16 >= - 1
y_n3n6 + y_n6n17 - y_n3n17 >= 0
- y_n3n6 - y_n6n17 + y_n3n17 >= - 1
y_n3n6 + y_n6n18 - y_n3n18 >= 0
- y_n3n6 - y_n6n18 + y_n3n18 >= - 1
y_n3n7 + y_n7n8 - y_n3n8 >= 0
- y_n3n7 - y_n7n8 + y_n3n8 >= - 1
y_n3n7 + y_n7n9 - y_n3n9 >= 0
- y_n3n7 - y_n7n9 + y_n3n9 >= - 1
y_n3n7 + y_n7n10 - y_n3n10 >= 0
- y_n3n7 - y_n7n10 + y_n3n10 >= - 1
y_n3n7 + y_n7n11 - y_n3n11 >= 0
- y_n3n7 - y_n7n11 + y_n3n11 >= - 1
y_n3n7 + y_n7n12 - y_n3n12 >= 0
- y_n3n7 - y_n7n12 + y_n3n12 >= - 1
y_n3n7 + y_n7n13 - y_n3n13 >= 0
- y_n3n7 - y_n7n13 + y_n3n13 >= - 1
y_n3n7 + y_n7n14 - y_n3n14 >= 0
- y_n3n7 - y_n7n14 + y_n3n14 >= - 1
y_n3n7 + y_n7n15 - y_n3n15 >= 0
- y_n3n7 - y_n7n15 + y_n3n15 >= - 1
y_n3n7 + y_n7n16 - y_n3n16 >= 0
- y_n3n7 - y_n7n16 + y_n3n16 >= - 1
y_n3n7 + y_n7n17 - y_n3n17 >= 0
- y_n3n7 - y_n7n17 + y_n3n17 >= - 1
y_n3n7 + y_n7n18 - y_n3n18 >= 0
- y_n3n7 - y_n7n18 + y_n3n18 >= - 1
y_n3n8 + y_n8n9 - y_n3n9 >= 0
- y_n3n8 - y_n8n9 + y_n3n9 >= - 1
y_n3n8 + y_n8n10 - y_n3n10 >= 0
- y_n3n8 - y_n8n10 + y_n3n10 >= - 1
y_n3n8 + y_n8n11 - y_n3n11 >= 0
- y_n3n8 - y_n8n11 + y_n3n11 >= - 1
y_n3n8 + y_n8n12 - y_n3n12 >= 0
- y_n3n8 - y_n8n12 + y_n3n12 >= - 1
y_n3n8 + y_n8n13 - y_n3n13 >= 0
- y_n3n8 - y_n8n13 + y_n3n13 >= - 1
y_n3n8 + y_n8n14 - y_n3n14 >= 0
- y_n3n8 - y_n8n14 + y_n3n14 >= - 1
y_n3n8 + y_n8n15 - y_n3n15 >= 0
- y_n3n8 - y_n8n15 + y_n3n15 >= - 1
y_n3n8 + y_n8n16 - y_n3n16 >= 0
- y_n3n8 - y_n8n16 + y_n3n16 >= - 1
y_n3n8 + y_n8n17 - y_n3n17 >= 0
- y_n3n8 - y_n8n17 + y_n3n17 >= - 1
y_n3n8 + y_n8n18 - y_n3n18 >= 0
- y_n3n8 - y_n8n18 + y_n3n18 >= - 1
y_n3n9 + y_n9n10 - y_n3n10 >= 0
- y_n3n9 - y_n9n10 + y_n3n10 >= - 1
y_n3n9 + y_n9n11 - y_n3n11 >= 0
- y_n3n9 - y_n9n11 + y_n3n11 >= - 1
y_n3n9 + y_n9n12 - y_n3n12 >= 0
- y_n3n9 - y_n9n12 + y_n3n12 >= - 1
y_n3n9 + y_n9n13 - y_n3n13 >= 0
- y_n3n9 - y_n9n13 + y_n3n13 >= - 1
y_n3n9 + y_n9n14 - y_n3n14 >= 0
- y_n3n9 - y_n9n14 + y_n3n14 >= - 1
y_n3n9 + y_n9n15 - y_n3n15 >= 0
- y_n3n9 - y_n9n15 + y_n3n15 >= - 1
y_n3n9 + y_n9n16 - y_n3n16 >= 0
- y_n3n9 - y_n9n16 + y_n3n16 >= - 1
y_n3n9 + y_n9n17 - y_n3n17 >= 0
- y_n3n9 - y_n9n17 + y_n3n17 >= - 1
y_n3n9 + y_n9n18 - y_n3n18 >= 0
- y_n3n9 - y_n9n18 + y_n3n18 >= - 1
y_n3n10 + y_n10n11 - y_n3n11 >= 0
- y_n3n10 - y_n10n11 + y_n3n11 >= - 1
y_n3n10 + y_n10n12 - y_n3n12 >= 0
- y_n3n10 - y_n10n12 + y_n3n12 >= - 1
y_n3n10 + y_n10n13 - y_n3n13 >= 0
- y_n3n10 - y_n10n13 + y_n3n13 >= - 1
y_n3n10 + y_n10n14 - y_n3n14 >= 0
- y_n3n10 - y_n10n14 + y_n3n14 >= - 1
y_n3n10 + y_n10n15 - y_n3n15 >= 0
- y_n3n10 - y_n10n15 + y_n3n15 >= - 1
y_n3n10 + y_n10n16 - y_n3n16 >= 0
- y_n3n10 - y_n10n16 + y_n3n16 >= - 1
y_n3n10 + y_n10n17 - y_n3n17 >= 0
- y_n3n10 - y_n10n17 + y_n3n17 >= - 1
y_n3n10 + y_n10n18 - y_n3n18 >= 0
- y_n3n10 - y_n10n18 + y_n3n18 >= - 1
y_n3n11 + y_n11n12 - y_n3n12 >= 0
- y_n3n11 - y_n11n12 + y_n3n12 >= - 1
y_n3n11 + y_n11n13 - y_n3n13 >= 0
- y_n3n11 - y_n11n13 + y_n3n13 >= - 1
y_n3n11 + y_n11n14 - y_n3n14 >= 0
- y_n3n11 - y_n11n14 + y_n3n14 >= - 1
y_n3n11 + y_n11n15 - y_n3n15 >= 0
- y_n3n11 - y_n11n15 + y_n3n15 >= - 1
y_n3n11 + y_n11n16 - y_n3n16 >= 0
- y_n3n11 - y_n11n16 + y_n3n16 >= - 1
y_n3n11 + y_n11n17 - y_n3n17 >= 0
- y_n3n11 - y_n11n17 + y_n3n17 >= - 1
y_n3n11 + y_n11n18 - y_n3n18 >= 0
- y_n3n11 - y_n11n18 + y_n3n18 >= - 1
y_n3n12 + y_n12n13 - y_n3n13 >= 0
- y_n3n12 - y_n12n13 + y_n3n13 >= - 1
y_n3n12 + y_n12n14 - y_n3n14 >= 0
- y_n3n12 - y_n12n14 + y_n3n14 >= - 1
y_n3n12 + y_n12n15 - y_n3n15 >= 0
- y_n3n12 - y_n12n15 + y_n3n15 >= - 1
y_n3n12 + y_n12n16 - y_n3n16 >= 0
- y_n3n12 - y_n12n16 + y_n3n16 >= - 1
y_n3n12 + y_n12n17 - y_n3n17 >= 0
- y_n3n12 - y_n12n17 + y_n3n17 >= - 1
y_n3n12 + y_n12n18 - y_n3n18 >= 0
- y_n3n12 - y_n12n18 + y_n3n18 >= - 1
y_n3n13 + y_n13n14 - y_n3n14 >= 0
- y_n3n13 - y_n13n14 + y_n3n14 >= - 1
y_n3n13 + y_n13n15 - y_n3n15 >= 0
- y_n3n13 - y_n13n15 + y_n3n15 >= - 1
y_n3n13 + y_n13n16 - y_n3n16 >= 0
- y_n3n13 - y_n13n16 + y_n3n16 >= - 1
y_n3n13 + y_n13n17 - y_n3n17 >= 0
- y_n3n13 - y_n13n17 + y_n3n17 >= - 1
y_n3n13 + y_n13n18 - y_n3n18 >= 0
- y_n3n13 - y_n13n18 + y_n3n18 >= - 1
y_n3n14 + y_n14n15 - y_n3n15 >= 0
- y_n3n14 - y_n14n15 + y_n3n15 >= - 1
y_n3n14 + y_n14n16 - y_n3n16 >= 0
- y_n3n14 - y_n14n16 + y_n3n16 >= - 1
y_n3n14 + y_n14n17 - y_n3n17 >= 0
- y_n3n14 - y_n14n17 + y_n3n17 >= - 1
y_n3n14 + y_n14n18 - y_n3n18 >= 0
- y_n3n14 - y_n14n18 + y_n3n18 >= - 1
y_n3n15 + y_n15n16 - y_n3n16 >= 0
- y_n3n15 - y_n15n16 + y_n3n16 >= - 1
y_n3n15 + y_n15n17 - y_n3n17 >= 0
- y_n3n15 - y_n15n17 + y_n3n17 >= - 1
y_n3n15 + y_n15n18 - y_n3n18 >= 0
- y_n3n15 - y_n15n18 + y_n3n18 >= - 1
y_n3n16 + y_n16n17 - y_n3n17 >= 0
- y_n3n16 - y_n16n17 + y_n3n17 >= - 1
y_n3n16 + y_n16n18 - y_n3n18 >= 0
- y_n3n16 - y_n16n18 + y_n3n18 >= - 1
y_n3n17 + y_n17n18 - y_n3n18 >= 0
- y_n3n17 - y_n17n18 + y_n3n18 >= - 1
y_n4n5 + y_n5n6 - y_n4n6 >= 0
- y_n4n5 - y_n5n6 + y_n4n6 >= - 1
y_n4n5 + y_n5n7 - y_n4n7 >= 0
- y_n4n5 - y_n5n7 + y_n4n7 >= - 1
y_n4n5 + y_n5n8 - y_n4n8 >= 0
- y_n4n5 - y_n5n8 + y_n4n8 >= - 1
y_n4n5 + y_n5n9 - y_n4n9 >= 0
- y_n4n5 - y_n5n9 + y_n4n9 >= - 1
y_n4n5 + y_n5n10 - y_n4n10 >= 0
- y_n4n5 - y_n5n10 + y_n4n10 >= - 1
y_n4n5 + y_n5n11 - y_n4n11 >= 0
- y_n4n5 - y_n5n11 + y_n4n11 >= - 1
y_n4n5 + y_n5n12 - y_n4n12 >= 0
- y_n4n5 - y_n5n12 + y_n4n12 >= - 1
y_n4n5 + y_n5n13 - y_n4n13 >= 0
- y_n4n5 - y_n5n13 + y_n4n13 >= - 1
y_n4n5 + y_n5n14 - y_n4n14 >= 0
- y_n4n5 - y_n5n14 + y_n4n14 >= - 1
y_n4n5 + y_n5n15 - y_n4n15 >= 0
- y_n4n5 - y_n5n15 + y_n4n15 >= - 1
y_n4n5 + y_n5n16 - y_n4n16 >= 0
- y_n4n5 - y_n5n16 + y_n4n16 >= - 1
y_n4n5 + y_n5n17 - y_n4n17 >= 0
- y_n4n5 - y_n5n17 + y_n4n17 >= - 1
y_n4n5 + y_n5n18 - y_n4n18 >= 0
- y_n4n5 - y_n5n18 + y_n4n18 >= - 1
y_n4n6 + y_n6n7 - y_n4n7 >= 0
- y_n4n6 - y_n6n7 + y_n4n7 >= - 1
y_n4n6 + y_n6n8 - y_n4n8 >= 0
- y_n4n6 - y_n6n8 + y_n4n8 >= - 1
y_n4n6 + y_n6n9 - y_n4n9 >= 0
- y_n4n6 - y_n6n9 + y_n4n9 >= - 1
y_n4n6 + y_n6n10 - y_n4n10 >= 0
- y_n4n6 - y_n6n10 + y_n4n10 >= - 1
y_n4n6 + y_n6n11 - y_n4n11 >= 0
- y_n4n6 - y_n6n11 + y_n4n11 >= - 1
y_n4n6 + y_n6n12 - y_n4n12 >= 0
- y_n4n6 - y_n6n12 + y_n4n12 >= - 1
y_n4n6 + y_n6n13 - y_n4n13 >= 0
- y_n4n6 - y_n6n13 + y_n4n13 >= - 1
y_n4n6 + y_n6n14 - y_n4n14 >= 0
- y_n4n6 - y_n6n14 + y_n4n14 >= - 1
y_n4n6 + y_n6n15 - y_n4n15 >= 0
- y_n4n6 - y_n6n15 + y_n4n15 >= - 1
y_n4n6 + y_n6n16 - y_n4n16 >= 0
- y_n4n6 - y_n6n16 + y_n4n16 >= - 1
y_n4n6 + y_n6n17 - y_n4n17 >= 0
- y_n4n6 - y_n6n17 + y_n4n17 >= - 1
y_n4n6 + y_n6n18 - y_n4n18 >= 0
- y_n4n6 - y_n6n18 + y_n4n18 >= - 1
y_n4n7 + y_n7n8 - y_n4n8 >= 0
- y_n4n7 - y_n7n8 + y_n4n8 >= - 1
y_n4n7 + y_n7n9 - y_n4n9 >= 0
- y_n4n7 - y_n7n9 + y_n4n9 >= - 1
y_n4n7 + y_n7n10 - y_n4n10 >= 0
- y_n4n7 - y_n7n10 + y_n4n10 >= - 1
y_n4n7 + y_n7n11 - y_n4n11 >= 0
- y_n4n7 - y_n7n11 + y_n4n11 >= - 1
y_n4n7 + y_n7n12 - y_n4n12 >= 0
- y_n4n7 - y_n7n12 + y_n4n12 >= - 1
y_n4n7 + y_n7n13 - y_n4n13 >= 0
- y_n4n7 - y_n7n13 + y_n4n13 >= - 1
y_n4n7 + y_n7n14 - y_n4n14 >= 0
- y_n4n7 - y_n7n14 + y_n4n14 >= - 1
y_n4n7 + y_n7n15 - y_n4n15 >= 0
- y_n4n7 - y_n7n15 + y_n4n15 >= - 1
y_n4n7 + y_n7n16 - y_n4n16 >= 0
- y_n4n7 - y_n7n16 + y_n4n16 >= - 1
y_n4n7 + y_n7n17 - y_n4n17 >= 0
- y_n4n7 - y_n7n17 + y_n4n17 >= - 1
y_n4n7 + y_n7n18 - y_n4n18 >= 0
- y_n4n7 - y_n7n18 + y_n4n18 >= - 1
y_n4n8 + y_n8n9 - y_n4n9 >= 0
- y_n4n8 - y_n8n9 + y_n4n9 >= - 1
y_n4n8 + y_n8n10 - y_n4n10 >= 0
- y_n4n8 - y_n8n10 + y_n4n10 >= - 1
y_n4n8 + y_n8n11 - y_n4n11 >= 0
- y_n4n8 - y_n8n11 + y_n4n11 >= - 1
y_n4n8 + y_n8n12 - y_n4n12 >= 0
- y_n4n8 - y_n8n12 + y_n4n12 >= - 1
y_n4n8 + y_n8n13 - y_n4n13 >= 0
- y_n4n8 - y_n8n13 + y_n4n13 >= - 1
y_n4n8 + y_n8n14 - y_n4n14 >= 0
- y_n4n8 - y_n8n14 + y_n4n14 >= - 1
y_n4n8 + y_n8n15 - y_n4n15 >= 0
- y_n4n8 - y_n8n15 + y_n4n15 >= - 1
y_n4n8 + y_n8n16 - y_n4n16 >= 0
- y_n4n8 - y_n8n16 + y_n4n16 >= - 1
y_n4n8 + y_n8n17 - y_n4n17 >= 0
- y_n4n8 - y_n8n17 + y_n4n17 >= - 1
y_n4n8 + y_n8n18 - y_n4n18 >= 0
- y_n4n8 - y_n8n18 + y_n4n18 >= - 1
y_n4n9 + y_n9n10 - y_n4n10 >= 0
- y_n4n9 - y_n9n10 + y_n4n10 >= - 1
y_n4n9 + y_n9n11 - y_n4n11 >= 0
- y_n4n9 - y_n9n11 + y_n4n11 >= - 1
y_n4n9 + y_n9n12 - y_n4n12 >= 0
- y_n4n9 - y_n9n12 + y_n4n12 >= - 1
y_n4n9 + y_n9n13 - y_n4n13 >= 0
- y_n4n9 - y_n9n13 + y_n4n13 >= - 1
y_n4n9 + y_n9n14 - y_n4n14 >= 0
- y_n4n9 - y_n9n14 + y_n4n14 >= - 1
y_n4n9 + y_n9n15 - y_n4n15 >= 0
- y_n4n9 - y_n9n15 + y_n4n15 >= - 1
y_n4n9 + y_n9n16 - y_n4n16 >= 0
- y_n4n9 - y_n9n16 + y_n4n16 >= - 1
y_n4n9 + y_n9n17 - y_n4n17 >= 0
- y_n4n9 - y_n9n17 + y_n4n17 >= - 1
y_n4n9 + y_n9n18 - y_n4n18 >= 0
- y_n4n9 - y_n9n18 + y_n4n18 >= - 1
y_n4n10 + y_n10n11 - y_n4n11 >= 0
- y_n4n10 - y_n10n11 + y_n4n11 >= - 1
y_n4n10 + y_n10n12 - y_n4n12 >= 0
- y_n4n10 - y_n10n12 + y_n4n12 >= - 1
y_n4n10 + y_n10n13 - y_n4n13 >= 0
- y_n4n10 - y_n10n13 + y_n4n13 >= - 1
y_n4n10 + y_n10n14 - y_n4n14 >= 0
- y_n4n10 - y_n10n14 + y_n4n14 >= - 1
y_n4n10 + y_n10n15 - y_n4n15 >= 0
- y_n4n10 - y_n10n15 + y_n4n15 >= - 1
y_n4n10 + y_n10n16 - y_n4n16 >= 0
- y_n4n10 - y_n10n16 + y_n4n16 >= - 1
y_n4n10 + y_n10n17 - y_n4n17 >= 0
- y_n4n10 - y_n10n17 + y_n4n17 >= - 1
y_n4n10 + y_n10n18 - y_n4n18 >= 0
- y_n4n10 - y_n10n18 + y_n4n18 >= - 1
y_n4n11 + y_n11n12 - y_n4n12 >= 0
- y_n4n11 - y_n11n12 + y_n4n12 >= - 1
y_n4n11 + y_n11n13 - y_n4n13 >= 0
- y_n4n11 - y_n11n13 + y_n4n13 >= - 1
y_n4n11 + y_n11n14 - y_n4n14 >= 0
- y_n4n11 - y_n11n14 + y_n4n14 >= - 1
y_n4n11 + y_n11n15 - y_n4n15 >= 0
- y_n4n11 - y_n11n15 + y_n4n15 >= - 1
y_n4n11 + y_n11n16 - y_n4n16 >= 0
- y_n4n11 - y_n11n16 + y_n4n16 >= - 1
y_n4n11 + y_n11n17 - y_n4n17 >= 0
- y_n4n11 - y_n11n17 + y_n4n17 >= - 1
y_n4n11 + y_n11n18 - y_n4n18 >= 0
- y_n4n11 - y_n11n18 + y_n4n18 >= - 1
y_n4n12 + y_n12n13 - y_n4n13 >= 0
- y_n4n12 - y_n12n13 + y_n4n13 >= - 1
y_n4n12 + y_n12n14 - y_n4n14 >= 0
- y_n4n12 - y_n12n14 + y_n4n14 >= - 1
y_n4n12 + y_n12n15 - y_n4n15 >= 0
- y_n4n12 - y_n12n15 + y_n4n15 >= - 1
y_n4n12 + y_n12n16 - y_n4n16 >= 0
- y_n4n12 - y_n12n16 + y_n4n16 >= - 1
y_n4n12 + y_n12n17 - y_n4n17 >= 0
- y_n4n12 - y_n12n17 + y_n4n17 >= - 1
y_n4n12 + y_n12n18 - y_n4n18 >= 0
- y_n4n12 - y_n12n18 + y_n4n18 >= - 1
y_n4n13 + y_n13n14 - y_n4n14 >= 0
- y_n4n13 - y_n13n14 + y_n4n14 >= - 1
y_n4n13 + y_n13n15 - y_n4n15 >= 0
- y_n4n13 - y_n13n15 + y_n4n15 >= - 1
y_n4n13 + y_n13n16 - y_n4n16 >= 0
- y_n4n13 - y_n13n16 + y_n4n16 >= - 1
y_n4n13 + y_n13n17 - y_n4n17 >= 0
- y_n4n13 - y_n13n17 + y_n4n17 >= - 1
y_n4n13 + y_n13n18 - y_n4n18 >= 0
- y_n4n13 - y_n13n18 + y_n4n18 >= - 1
y_n4n14 + y_n14n15 - y_n4n15 >= 0
- y_n4n14 - y_n14n15 + y_n4n15 >= - 1
y_n4n14 + y_n14n16 - y_n4n16 >= 0
- y_n4n14 - y_n14n16 + y_n4n16 >= - 1
y_n4n14 + y_n14n17 - y_n4n17 >= 0
- y_n4n14 - y_n14n17 + y_n4n17 >= - 1
y_n4n14 + y_n14n18 - y_n4n18 >= 0
- y_n4n14 - y_n14n18 + y_n4n18 >= - 1
y_n4n15 + y_n15n16 - y_n4n16 >= 0
- y_n4n15 - y_n15n16 + y_n4n16 >= - 1
y_n4n15 + y_n15n17 - y_n4n17 >= 0
- y_n4n15 - y_n15n17 + y_n4n17 >= - 1
y_n4n15 + y_n15n18 - y_n4n18 >= 0
- y_n4n15 - y_n15n18 + y_n4n18 >= - 1
y_n4n16 + y_n16n17 - y_n4n17 >= 0
- y_n4n16 - y_n16n17 + y_n4n17 >= - 1
y_n4n16 + y_n16n18 - y_n4n18 >= 0
- y_n4n16 - y_n16n18 + y_n4n18 >= - 1
y_n4n17 + y_n17n18 - y_n4n18 >= 0
- y_n4n17 - y_n17n18 + y_n4n18 >= - 1
y_n5n6 + y_n6n7 - y_n5n7 >= 0
- y_n5n6 - y_n6n7 + y_n5n7 >= - 1
y_n5n6 + y_n6n8 - y_n5n8 >= 0
- y_n5n6 - y_n6n8 + y_n5n8 >= - 1
y_n5n6 + y_n6n9 - y_n5n9 >= 0
- y_n5n6 - y_n6n9 + y_n5n9 >= - 1
y_n5n6 + y_n6n10 - y_n5n10 >= 0
- y_n5n6 - y_n6n10 + y_n5n10 >= - 1
y_n5n6 + y_n6n11 - y_n5n11 >= 0
- y_n5n6 - y_n6n11 + y_n5n11 >= - 1
y_n5n6 + y_n6n12 - y_n5n12 >= 0
- y_n5n6 - y_n6n12 + y_n5n12 >= - 1
y_n5n6 + y_n6n13 - y_n5n13 >= 0
- y_n5n6 - y_n6n13 + y_n5n13 >= - 1
y_n5n6 + y_n6n14 - y_n5n14 >= 0
- y_n5n6 - y_n6n14 + y_n5n14 >= - 1
y_n5n6 + y_n6n15 - y_n5n15 >= 0
- y_n5n6 - y_n6n15 + y_n5n15 >= - 1
y_n5n6 + y_n6n16 - y_n5n16 >= 0
- y_n5n6 - y_n6n16 + y_n5n16 >= - 1
y_n5n6 + y_n6n17 - y_n5n17 >= 0
- y_n5n6 - y_n6n17 + y_n5n17 >= - 1
y_n5n6 + y_n6n18 - y_n5n18 >= 0
- y_n5n6 - y_n6n18 + y_n5n18 >= - 1
y_n5n7 + y_n7n8 - y_n5n8 >= 0
- y_n5n7 - y_n7n8 + y_n5n8 >= - 1
y_n5n7 + y_n7n9 - y_n5n9 >= 0
- y_n5n7 - y_n7n9 + y_n5n9 >= - 1
y_n5n7 + y_n7n10 - y_n5n10 >= 0
- y_n5n7 - y_n7n10 + y_n5n10 >= - 1
y_n5n7 + y_n7n11 - y_n5n11 >= 0
- y_n5n7 - y_n7n11 + y_n5n11 >= - 1
y_n5n7 + y_n7n12 - y_n5n12 >= 0
- y_n5n7 - y_n7n12 + y_n5n12 >= - 1
y_n5n7 + y_n7n13 - y_n5n13 >= 0
- y_n5n7 - y_n7n13 + y_n5n13 >= - 1
y_n5n7 + y_n7n14 - y_n5n14 >= 0
- y_n5n7 - y_n7n14 + y_n5n14 >= - 1
y_n5n7 + y_n7n15 - y_n5n15 >= 0
- y_n5n7 - y_n7n15 + y_n5n15 >= - 1
y_n5n7 + y_n7n16 - y_n5n16 >= 0
- y_n5n7 - y_n7n16 + y_n5n16 >= - 1
y_n5n7 + y_n7n17 - y_n5n17 >= 0
- y_n5n7 - y_n7n17 + y_n5n17 >= - 1
y_n5n7 + y_n7n18 - y_n5n18 >= 0
- y_n5n7 - y_n7n18 + y_n5n18 >= - 1
y_n5n8 + y_n8n9 - y_n5n9 >= 0
- y_n5n8 - y_n8n9 + y_n5n9 >= - 1
y_n5n8 + y_n8n10 - y_n5n10 >= 0
- y_n5n8 - y_n8n10 + y_n5n10 >= - 1
y_n5n8 + y_n8n11 - y_n5n11 >= 0
- y_n5n8 - y_n8n11 + y_n5n11 >= - 1
y_n5n8 + y_n8n12 - y_n5n12 >= 0
- y_n5n8 - y_n8n12 + y_n5n12 >= - 1
y_n5n8 + y_n8n13 - y_n5n13 >= 0
- y_n5n8 - y_n8n13 + y_n5n13 >= - 1
y_n5n8 + y_n8n14 - y_n5n14 >= 0
- y_n5n8 - y_n8n14 + y_n5n14 >= - 1
y_n5n8 + y_n8n15 - y_n5n15 >= 0
- y_n5n8 - y_n8n15 + y_n5n15 >= - 1
y_n5n8 + y_n8n16 - y_n5n16 >= 0
- y_n5n8 - y_n8n16 + y_n5n16 >= - 1
y_n5n8 + y_n8n17 - y_n5n17 >= 0
- y_n5n8 - y_n8n17 + y_n5n17 >= - 1
y_n5n8 + y_n8n18 - y_n5n18 >= 0
- y_n5n8 - y_n8n18 + y_n5n18 >= - 1
y_n5n9 + y_n9n10 - y_n5n10 >= 0
- y_n5n9 - y_n9n10 + y_n5n10 >= - 1
y_n5n9 + y_n9n11 - y_n5n11 >= 0
- y_n5n9 - y_n9n11 + y_n5n11 >= - 1
y_n5n9 + y_n9n12 - y_n5n12 >= 0
- y_n5n9 - y_n9n12 + y_n5n12 >= - 1
y_n5n9 + y_n9n13 - y_n5n13 >= 0
- y_n5n9 - y_n9n13 + y_n5n13 >= - 1
y_n5n9 + y_n9n14 - y_n5n14 >= 0
- y_n5n9 - y_n9n14 + y_n5n14 >= - 1
y_n5n9 + y_n9n15 - y_n5n15 >= 0
- y_n5n9 - y_n9n15 + y_n5n15 >= - 1
y_n5n9 + y_n9n16 - y_n5n16 >= 0
- y_n5n9 - y_n9n16 + y_n5n16 >= - 1
y_n5n9 + y_n9n17 - y_n5n17 >= 0
- y_n5n9 - y_n9n17 + y_n5n17 >= - 1
y_n5n9 + y_n9n18 - y_n5n18 >= 0
- y_n5n9 - y_n9n18 + y_n5n18 >= - 1
y_n5n10 + y_n10n11 - y_n5n11 >= 0
- y_n5n10 - y_n10n11 + y_n5n11 >= - 1
y_n5n10 + y_n10n12 - y_n5n12 >= 0
- y_n5n10 - y_n10n12 + y_n5n12 >= - 1
y_n5n10 + y_n10n13 - y_n5n13 >= 0
- y_n5n10 - y_n10n13 + y_n5n13 >= - 1
y_n5n10 + y_n10n14 - y_n5n14 >= 0
- y_n5n10 - y_n10n14 + y_n5n14 >= - 1
y_n5n10 + y_n10n15 - y_n5n15 >= 0
- y_n5n10 - y_n10n15 + y_n5n15 >= - 1
y_n5n10 + y_n10n16 - y_n5n16 >= 0
- y_n5n10 - y_n10n16 + y_n5n16 >= - 1
y_n5n10 + y_n10n17 - y_n5n17 >= 0
- y_n5n10 - y_n10n17 + y_n5n17 >= - 1
y_n5n10 + y_n10n18 - y_n5n18 >= 0
- y_n5n10 - y_n10n18 + y_n5n18 >= - 1
y_n5n11 + y_n11n12 - y_n5n12 >= 0
- y_n5n11 - y_n11n12 + y_n5n12 >= - 1
y_n5n11 + y_n11n13 - y_n5n13 >= 0
- y_n5n11 - y_n11n13 + y_n5n13 >= - 1
y_n5n11 + y_n11n14 - y_n5n14 >= 0
- y_n5n11 - y_n11n14 + y_n5n14 >= - 1
y_n5n11 + y_n11n15 - y_n5n15 >= 0
- y_n5n11 - y_n11n15 + y_n5n15 >= - 1
y_n5n11 + y_n11n16 - y_n5n16 >= 0
- y_n5n11 - y_n11n16 + y_n5n16 >= - 1
y_n5n11 + y_n11n17 - y_n5n17 >= 0
- y_n5n11 - y_n11n17 + y_n5n17 >= - 1
y_n5n11 + y_n11n18 - y_n5n18 >= 0
- y_n5n11 - y_n11n18 + y_n5n18 >= - 1
y_n5n12 + y_n12n13 - y_n5n13 >= 0
- y_n5n12 - y_n12n13 + y_n5n13 >= - 1
y_n5n12 + y_n12n14 - y_n5n14 >= 0
- y_n5n12 - y_n12n14 + y_n5n14 >= - 1
y_n5n12 + y_n12n15 - y_n5n15 >= 0
- y_n5n12 - y_n12n15 + y_n5n15 >= - 1
y_n5n12 + y_n12n16 - y_n5n16 >= 0
- y_n5n12 - y_n12n16 + y_n5n16 >= - 1
y_n5n12 + y_n12n17 - y_n5n17 >= 0
- y_n5n12 - y_n12n17 + y_n5n17 >= - 1
y_n5n12 + y_n12n18 - y_n5n18 >= 0
- y_n5n12 - y_n12n18 + y_n5n18 >= - 1
y_n5n13 + y_n13n14 - y_n5n14 >= 0
- y_n5n13 - y_n13n14 + y_n5n14 >= - 1
y_n5n13 + y_n13n15 - y_n5n15 >= 0
- y_n5n13 - y_n13n15 + y_n5n15 >= - 1
y_n5n13 + y_n13n16 - y_n5n16 >= 0
- y_n5n13 - y_n13n16 + y_n5n16 >= - 1
y_n5n13 + y_n13n17 - y_n5n17 >= 0
- y_n5n13 - y_n13n17 + y_n5n17 >= - 1
y_n5n13 + y_n13n18 - y_n5n18 >= 0
- y_n5n13 - y_n13n18 + y_n5n18 >= - 1
y_n5n14 + y_n14n15 - y_n5n15 >= 0
- y_n5n14 - y_n14n15 + y_n5n15 >= - 1
y_n5n14 + y_n14n16 - y_n5n16 >= 0
- y_n5n14 - y_n14n16 + y_n5n16 >= - 1
y_n5n14 + y_n14n17 - y_n5n17 >= 0
- y_n5n14 - y_n14n17 + y_n5n17 >= - 1
y_n5n14 + y_n14n18 - y_n5n18 >= 0
- y_n5n14 - y_n14n18 + y_n5n18 >= - 1
y_n5n15 + y_n15n16 - y_n5n16 >= 0
- y_n5n15 - y_n15n16 + y_n5n16 >= - 1
y_n5n15 + y_n15n17 - y_n5n17 >= 0
- y_n5n15 - y_n15n17 + y_n5n17 >= - 1
y_n5n15 + y_n15n18 - y_n5n18 >= 0
- y_n5n15 - y_n15n18 + y_n5n18 >= - 1
y_n5n16 + y_n16n17 - y_n5n17 >= 0
- y_n5n16 - y_n16n17 + y_n5n17 >= - 1
y_n5n16 + y_n16n18 - y_n5n18 >= 0
- y_n5n16 - y_n16n18 + y_n5n18 >= - 1
y_n5n17 + y_n17n18 - y_n5n18 >= 0
- y_n5n17 - y_n17n18 + y_n5n18 >= - 1
y_n6n7 + y_n7n8 - y_n6n8 >= 0
- y_n6n7 - y_n7n8 + y_n6n8 >= - 1
y_n6n7 + y_n7n9 - y_n6n9 >= 0
- y_n6n7 - y_n7n9 + y_n6n9 >= - 1
y_n6n7 + y_n7n10 - y_n6n10 >= 0
- y_n6n7 - y_n7n10 + y_n6n10 >= - 1
y_n6n7 + y_n7n11 - y_n6n11 >= 0
- y_n6n7 - y_n7n11 + y_n6n11 >= - 1
y_n6n7 + y_n7n12 - y_n6n12 >= 0
- y_n6n7 - y_n7n12 + y_n6n12 >= - 1
y_n6n7 + y_n7n13 - y_n6n13 >= 0
- y_n6n7 - y_n7n13 + y_n6n13 >= - 1
y_n6n7 + y_n7n14 - y_n6n14 >= 0
- y_n6n7 - y_n7n14 + y_n6n14 >= - 1
y_n6n7 + y_n7n15 - y_n6n15 >= 0
- y_n6n7 - y_n7n15 + y_n6n15 >= - 1
y_n6n7 + y_n7n16 - y_n6n16 >= 0
- y_n6n7 - y_n7n16 + y_n6n16 >= - 1
y_n6n7 + y_n7n17 - y_n6n17 >= 0
- y_n6n7 - y_n7n17 + y_n6n17 >= - 1
y_n6n7 + y_n7n18 - y_n6n18 >= 0
- y_n6n7 - y_n7n18 + y_n6n18 >= - 1
y_n6n8 + y_n8n9 - y_n6n9 >= 0
- y_n6n8 - y_n8n9 + y_n6n9 >= - 1
y_n6n8 + y_n8n10 - y_n6n10 >= 0
- y_n6n8 - y_n8n10 + y_n6n10 >= - 1
y_n6n8 + y_n8n11 - y_n6n11 >= 0
- y_n6n8 - y_n8n11 + y_n6n11 >= - 1
y_n6n8 + y_n8n12 - y_n6n12 >= 0
- y_n6n8 - y_n8n12 + y_n6n12 >= - 1
y_n6n8 + y_n8n13 - y_n6n13 >= 0
- y_n6n8 - y_n8n13 + y_n6n13 >= - 1
y_n6n8 + y_n8n14 - y_n6n14 >= 0
- y_n6n8 - y_n8n14 + y_n6n14 >= - 1
y_n6n8 + y_n8n15 - y_n6n15 >= 0
- y_n6n8 - y_n8n15 + y_n6n15 >= - 1
y_n6n8 + y_n8n16 - y_n6n16 >= 0
- y_n6n8 - y_n8n16 + y_n6n16 >= - 1
y_n6n8 + y_n8n17 - y_n6n17 >= 0
- y_n6n8 - y_n8n17 + y_n6n17 >= - 1
y_n6n8 + y_n8n18 - y_n6n18 >= 0
- y_n6n8 - y_n8n18 + y_n6n18 >= - 1
y_n6n9 + y_n9n10 - y_n6n10 >= 0
- y_n6n9 - y_n9n10 + y_n6n10 >= - 1
y_n6n9 + y_n9n11 - y_n6n11 >= 0
- y_n6n9 - y_n9n11 + y_n6n11 >= - 1
y_n6n9 + y_n9n12 - y_n6n12 >= 0
- y_n6n9 - y_n9n12 + y_n6n12 >= - 1
y_n6n9 + y_n9n13 - y_n6n13 >= 0
- y_n6n9 - y_n9n13 + y_n6n13 >= - 1
y_n6n9 + y_n9n14 - y_n6n14 >= 0
- y_n6n9 - y_n9n14 + y_n6n14 >= - 1
y_n6n9 + y_n9n15 - y_n6n15 >= 0
- y_n6n9 - y_n9n15 + y_n6n15 >= - 1
y_n6n9 + y_n9n16 - y_n6n16 >= 0
- y_n6n9 - y_n9n16 + y_n6n16 >= - 1
y_n6n9 + y_n9n17 - y_n6n17 >= 0
- y_n6n9 - y_n9n17 + y_n6n17 >= - 1
y_n6n9 + y_n9n18 - y_n6n18 >= 0
- y_n6n9 - y_n9n18 + y_n6n18 >= - 1
y_n6n10 + y_n10n11 - y_n6n11 >= 0
- y_n6n10 - y_n10n11 + y_n6n11 >= - 1
y_n6n10 + y_n10n12 - y_n6n12 >= 0
- y_n6n10 - y_n10n12 + y_n6n12 >= - 1
y_n6n10 + y_n10n13 - y_n6n13 >= 0
- y_n6n10 - y_n10n13 + y_n6n13 >= - 1
y_n6n10 + y_n10n14 - y_n6n14 >= 0
- y_n6n10 - y_n10n14 + y_n6n14 >= - 1
y_n6n10 + y_n10n15 - y_n6n15 >= 0
- y_n6n10 - y_n10n15 + y_n6n15 >= - 1
y_n6n10 + y_n10n16 - y_n6n16 >= 0
- y_n6n10 - y_n10n16 + y_n6n16 >= - 1
y_n6n10 + y_n10n17 - y_n6n17 >= 0
- y_n6n10 - y_n10n17 + y_n6n17 >= - 1
y_n6n10 + y_n10n18 - y_n6n18 >= 0
- y_n6n10 - y_n10n18 + y_n6n18 >= - 1
y_n6n11 + y_n11n12 - y_n6n12 >= 0
- y_n6n11 - y_n11n12 + y_n6n12 >= - 1
y_n6n11 + y_n11n13 - y_n6n13 >= 0
- y_n6n11 - y_n11n13 + y_n6n13 >= - 1
y_n6n11 + y_n11n14 - y_n6n14 >= 0
- y_n6n11 - y_n11n14 + y_n6n14 >= - 1
y_n6n11 + y_n11n15 - y_n6n15 >= 0
- y_n6n11 - y_n11n15 + y_n6n15 >= - 1
y_n6n11 + y_n11n16 - y_n6n16 >= 0
- y_n6n11 - y_n11n16 + y_n6n16 >= - 1
y_n6n11 + y_n11n17 - y_n6n17 >= 0
- y_n6n11 - y_n11n17 + y_n6n17 >= - 1
y_n6n11 + y_n11n18 - y_n6n18 >= 0
- y_n6n11 - y_n11n18 + y_n6n18 >= - 1
y_n6n12 + y_n12n13 - y_n6n13 >= 0
- y_n6n12 - y_n12n13 + y_n6n13 >= - 1
y_n6n12 + y_n12n14 - y_n6n14 >= 0
- y_n6n12 - y_n12n14 + y_n6n14 >= - 1
y_n6n12 + y_n12n15 - y_n6n15 >= 0
- y_n6n12 - y_n12n15 + y_n6n15 >= - 1
y_n6n12 + y_n12n16 - y_n6n16 >= 0
- y_n6n12 - y_n12n16 + y_n6n16 >= - 1
y_n6n12 + y_n12n17 - y_n6n17 >= 0
- y_n6n12 - y_n12n17 + y_n6n17 >= - 1
y_n6n12 + y_n12n18 - y_n6n18 >= 0
- y_n6n12 - y_n12n18 + y_n6n18 >= - 1
y_n6n13 + y_n13n14 - y_n6n14 >= 0
- y_n6n13 - y_n13n14 + y_n6n14 >= - 1
y_n6n13 + y_n13n15 - y_n6n15 >= 0
- y_n6n13 - y_n13n15 + y_n6n15 >= - 1
y_n6n13 + y_n13n16 - y_n6n16 >= 0
- y_n6n13 - y_n13n16 + y_n6n16 >= - 1
y_n6n13 + y_n13n17 - y_n6n17 >= 0
- y_n6n13 - y_n13n17 + y_n6n17 >= - 1
y_n6n13 + y_n13n18 - y_n6n18 >= 0
- y_n6n13 - y_n13n18 + y_n6n18 >= - 1
y_n6n14 + y_n14n15 - y_n6n15 >= 0
- y_n6n14 - y_n14n15 + y_n6n15 >= - 1
y_n6n14 + y_n14n16 - y_n6n16 >= 0
- y_n6n14 - y_n14n16 + y_n6n16 >= - 1
y_n6n14 + y_n14n17 - y_n6n17 >= 0
- y_n6n14 - y_n14n17 + y_n6n17 >= - 1
y_n6n14 + y_n14n18 - y_n6n18 >= 0
- y_n6n14 - y_n14n18 + y_n6n18 >= - 1
y_n6n15 + y_n15n16 - y_n6n16 >= 0
- y_n6n15 - y_n15n16 + y_n6n16 >= - 1
y_n6n15 + y_n15n17 - y_n6n17 >= 0
- y_n6n15 - y_n15n17 + y_n6n17 >= - 1
y_n6n15 + y_n15n18 - y_n6n18 >= 0
- y_n6n15 - y_n15n18 + y_n6n18 >= - 1
y_n6n16 + y_n16n17 - y_n6n17 >= 0
- y_n6n16 - y_n16n17 + y_n6n17 >= - 1
y_n6n16 + y_n16n18 - y_n6n18 >= 0
- y_n6n16 - y_n16n18 + y_n6n18 >= - 1
y_n6n17 + y_n17n18 - y_n6n18 >= 0
- y_n6n17 - y_n17n18 + y_n6n18 >= - 1
y_n7n8 + y_n8n9 - y_n7n9 >= 0
- y_n7n8 - y_n8n9 + y_n7n9 >= - 1
y_n7n8 + y_n8n10 - y_n7n10 >= 0
- y_n7n8 - y_n8n10 + y_n7n10 >= - 1
y_n7n8 + y_n8n11 - y_n7n11 >= 0
- y_n7n8 - y_n8n11 + y_n7n11 >= - 1
y_n7n8 + y_n8n12 - y_n7n12 >= 0
- y_n7n8 - y_n8n12 + y_n7n12 >= - 1
y_n7n8 + y_n8n13 - y_n7n13 >= 0
- y_n7n8 - y_n8n13 + y_n7n13 >= - 1
y_n7n8 + y_n8n14 - y_n7n14 >= 0
- y_n7n8 - y_n8n14 + y_n7n14 >= - 1
y_n7n8 + y_n8n15 - y_n7n15 >= 0
- y_n7n8 - y_n8n15 + y_n7n15 >= - 1
y_n7n8 + y_n8n16 - y_n7n16 >= 0
- y_n7n8 - y_n8n16 + y_n7n16 >= - 1
y_n7n8 + y_n8n17 - y_n7n17 >= 0
- y_n7n8 - y_n8n17 + y_n7n17 >= - 1
y_n7n8 + y_n8n18 - y_n7n18 >= 0
- y_n7n8 - y_n8n18 + y_n7n18 >= - 1
y_n7n9 + y_n9n10 - y_n7n10 >= 0
- y_n7n9 - y_n9n10 + y_n7n10 >= - 1
y_n7n9 + y_n9n11 - y_n7n11 >= 0
- y_n7n9 - y_n9n11 + y_n7n11 >= - 1
y_n7n9 + y_n9n12 - y_n7n12 >= 0
- y_n7n9 - y_n9n12 + y_n7n12 >= - 1
y_n7n9 + y_n9n13 - y_n7n13 >= 0
- y_n7n9 - y_n9n13 + y_n7n13 >= - 1
y_n7n9 + y_n9n14 - y_n7n14 >= 0
- y_n7n9 - y_n9n14 + y_n7n14 >= - 1
y_n7n9 + y_n9n15 - y_n7n15 >= 0
- y_n7n9 - y_n9n15 + y_n7n15 >= - 1
y_n7n9 + y_n9n16 - y_n7n16 >= 0
- y_n7n9 - y_n9n16 + y_n7n16 >= - 1
y_n7n9 + y_n9n17 - y_n7n17 >= 0
- y_n7n9 - y_n9n17 + y_n7n17 >= - 1
y_n7n9 + y_n9n18 - y_n7n18 >= 0
- y_n7n9 - y_n9n18 + y_n7n18 >= - 1
y_n7n10 + y_n10n11 - y_n7n11 >= 0
- y_n7n10 - y_n10n11 + y_n7n11 >= - 1
y_n7n10 + y_n10n12 - y_n7n12 >= 0
- y_n7n10 - y_n10n12 + y_n7n12 >= - 1
y_n7n10 + y_n10n13 - y_n7n13 >= 0
- y_n7n10 - y_n10n13 + y_n7n13 >= - 1
y_n7n10 + y_n10n14 - y_n7n14 >= 0
- y_n7n10 - y_n10n14 + y_n7n14 >= - 1
y_n7n10 + y_n10n15 - y_n7n15 >= 0
- y_n7n10 - y_n10n15 + y_n7n15 >= - 1
y_n7n10 + y_n10n16 - y_n7n16 >= 0
- y_n7n10 - y_n10n16 + y_n7n16 >= - 1
y_n7n10 + y_n10n17 - y_n7n17 >= 0
- y_n7n10 - y_n10n17 + y_n7n17 >= - 1
y_n7n10 + y_n10n18 - y_n7n18 >= 0
- y_n7n10 - y_n10n18 + y_n7n18 >= - 1
y_n7n11 + y_n11n12 - y_n7n12 >= 0
- y_n7n11 - y_n11n12 + y_n7n12 >= - 1
y_n7n11 + y_n11n13 - y_n7n13 >= 0
- y_n7n11 - y_n11n13 + y_n7n13 >= - 1
y_n7n11 + y_n11n14 - y_n7n14 >= 0
- y_n7n11 - y_n11n14 + y_n7n14 >= - 1
y_n7n11 + y_n11n15 - y_n7n15 >= 0
- y_n7n11 - y_n11n15 + y_n7n15 >= - 1
y_n7n11 + y_n11n16 - y_n7n16 >= 0
- y_n7n11 - y_n11n16 + y_n7n16 >= - 1
y_n7n11 + y_n11n17 - y_n7n17 >= 0
- y_n7n11 - y_n11n17 + y_n7n17 >= - 1
y_n7n11 + y_n11n18 - y_n7n18 >= 0
- y_n7n11 - y_n11n18 + y_n7n18 >= - 1
y_n7n12 + y_n12n13 - y_n7n13 >= 0
- y_n7n12 - y_n12n13 + y_n7n13 >= - 1
y_n7n12 + y_n12n14 - y_n7n14 >= 0
- y_n7n12 - y_n12n14 + y_n7n14 >= - 1
y_n7n12 + y_n12n15 - y_n7n15 >= 0
- y_n7n12 - y_n12n15 + y_n7n15 >= - 1
y_n7n12 + y_n12n16 - y_n7n16 >= 0
- y_n7n12 - y_n12n16 + y_n7n16 >= - 1
y_n7n12 + y_n12n17 - y_n7n17 >= 0
- y_n7n12 - y_n12n17 + y_n7n17 >= - 1
y_n7n12 + y_n12n18 - y_n7n18 >= 0
- y_n7n12 - y_n12n18 + y_n7n18 >= - 1
y_n7n13 + y_n13n14 - y_n7n14 >= 0
- y_n7n13 - y_n13n14 + y_n7n14 >= - 1
y_n7n13 + y_n13n15 - y_n7n15 >= 0
- y_n7n13 - y_n13n15 + y_n7n15 >= - 1
y_n7n13 + y_n13n16 - y_n7n16 >= 0
- y_n7n13 - y_n13n16 + y_n7n16 >= - 1
y_n7n13 + y_n13n17 - y_n7n17 >= 0
- y_n7n13 - y_n13n17 + y_n7n17 >= - 1
y_n7n13 + y_n13n18 - y_n7n18 >= 0
- y_n7n13 - y_n13n18 + y_n7n18 >= - 1
y_n7n14 + y_n14n15 - y_n7n15 >= 0
- y_n7n14 - y_n14n15 + y_n7n15 >= - 1
y_n7n14 + y_n14n16 - y_n7n16 >= 0
- y_n7n14 - y_n14n16 + y_n7n16 >= - 1
y_n7n14 + y_n14n17 - y_n7n17 >= 0
- y_n7n14 - y_n14n17 + y_n7n17 >= - 1
y_n7n14 + y_n14n18 - y_n7n18 >= 0
- y_n7n14 - y_n14n18 + y_n7n18 >= - 1
y_n7n15 + y_n15n16 - y_n7n16 >= 0
- y_n7n15 - y_n15n16 + y_n7n16 >= - 1
y_n7n15 + y_n15n17 - y_n7n17 >= 0
- y_n7n15 - y_n15n17 + y_n7n17 >= - 1
y_n7n15 + y_n15n18 - y_n7n18 >= 0
- y_n7n15 - y_n15n18 + y_n7n18 >= - 1
y_n7n16 + y_n16n17 - y_n7n17 >= 0
- y_n7n16 - y_n16n17 + y_n7n17 >= - 1
y_n7n16 + y_n16n18 - y_n7n18 >= 0
- y_n7n16 - y_n16n18 + y_n7n18 >= - 1
y_n7n17 + y_n17n18 - y_n7n18 >= 0
- y_n7n17 - y_n17n18 + y_n7n18 >= - 1
y_n8n9 + y_n9n10 - y_n8n10 >= 0
- y_n8n9 - y_n9n10 + y_n8n10 >= - 1
y_n8n9 + y_n9n11 - y_n8n11 >= 0
- y_n8n9 - y_n9n11 + y_n8n11 >= - 1
y_n8n9 + y_n9n12 - y_n8n12 >= 0
- y_n8n9 - y_n9n12 + y_n8n12 >= - 1
y_n8n9 + y_n9n13 - y_n8n13 >= 0
- y_n8n9 - y_n9n13 + y_n8n13 >= - 1
y_n8n9 + y_n9n14 - y_n8n14 >= 0
- y_n8n9 - y_n9n14 + y_n8n14 >= - 1
y_n8n9 + y_n9n15 - y_n8n15 >= 0
- y_n8n9 - y_n9n15 + y_n8n15 >= - 1
y_n8n9 + y_n9n16 - y_n8n16 >= 0
- y_n8n9 - y_n9n16 + y_n8n16 >= - 1
y_n8n9 + y_n9n17 - y_n8n17 >= 0
- y_n8n9 - y_n9n17 + y_n8n17 >= - 1
y_n8n9 + y_n9n18 - y_n8n18 >= 0
- y_n8n9 - y_n9n18 + y_n8n18 >= - 1
y_n8n10 + y_n10n11 - y_n8n11 >= 0
- y_n8n10 - y_n10n11 + y_n8n11 >= - 1
y_n8n10 + y_n10n12 - y_n8n12 >= 0
- y_n8n10 - y_n10n12 + y_n8n12 >= - 1
y_n8n10 + y_n10n13 - y_n8n13 >= 0
- y_n8n10 - y_n10n13 + y_n8n13 >= - 1
y_n8n10 + y_n10n14 - y_n8n14 >= 0
- y_n8n10 - y_n10n14 + y_n8n14 >= - 1
y_n8n10 + y_n10n15 - y_n8n15 >= 0
- y_n8n10 - y_n10n15 + y_n8n15 >= - 1
y_n8n10 + y_n10n16 - y_n8n16 >= 0
- y_n8n10 - y_n10n16 + y_n8n16 >= - 1
y_n8n10 + y_n10n17 - y_n8n17 >= 0
- y_n8n10 - y_n10n17 + y_n8n17 >= - 1
y_n8n10 + y_n10n18 - y_n8n18 >= 0
- y_n8n10 - y_n10n18 + y_n8n18 >= - 1
y_n8n11 + y_n11n12 - y_n8n12 >= 0
- y_n8n11 - y_n11n12 + y_n8n12 >= - 1
y_n8n11 + y_n11n13 - y_n8n13 >= 0
- y_n8n11 - y_n11n13 + y_n8n13 >= - 1
y_n8n11 + y_n11n14 - y_n8n14 >= 0
- y_n8n11 - y_n11n14 + y_n8n14 >= - 1
y_n8n11 + y_n11n15 - y_n8n15 >= 0
- y_n8n11 - y_n11n15 + y_n8n15 >= - 1
y_n8n11 + y_n11n16 - y_n8n16 >= 0
- y_n8n11 - y_n11n16 + y_n8n16 >= - 1
y_n8n11 + y_n11n17 - y_n8n17 >= 0
- y_n8n11 - y_n11n17 + y_n8n17 >= - 1
y_n8n11 + y_n11n18 - y_n8n18 >= 0
- y_n8n11 - y_n11n18 + y_n8n18 >= - 1
y_n8n12 + y_n12n13 - y_n8n13 >= 0
- y_n8n12 - y_n12n13 + y_n8n13 >= - 1
y_n8n12 + y_n12n14 - y_n8n14 >= 0
- y_n8n12 - y_n12n14 + y_n8n14 >= - 1
y_n8n12 + y_n12n15 - y_n8n15 >= 0
- y_n8n12 - y_n12n15 + y_n8n15 >= - 1
y_n8n12 + y_n12n16 - y_n8n16 >= 0
- y_n8n12 - y_n12n16 + y_n8n16 >= - 1
y_n8n12 + y_n12n17 - y_n8n17 >= 0
- y_n8n12 - y_n12n17 + y_n8n17 >= - 1
y_n8n12 + y_n12n18 - y_n8n18 >= 0
- y_n8n12 - y_n12n18 + y_n8n18 >= - 1
y_n8n13 + y_n13n14 - y_n8n14 >= 0
- y_n8n13 - y_n13n14 + y_n8n14 >= - 1
y_n8n13 + y_n13n15 - y_n8n15 >= 0
- y_n8n13 - y_n13n15 + y_n8n15 >= - 1
y_n8n13 + y_n13n16 - y_n8n16 >= 0
- y_n8n13 - y_n13n16 + y_n8n16 >= - 1
y_n8n13 + y_n13n17 - y_n8n17 >= 0
- y_n8n13 - y_n13n17 + y_n8n17 >= - 1
y_n8n13 + y_n13n18 - y_n8n18 >= 0
- y_n8n13 - y_n13n18 + y_n8n18 >= - 1
y_n8n14 + y_n14n15 - y_n8n15 >= 0
- y_n8n14 - y_n14n15 + y_n8n15 >= - 1
y_n8n14 + y_n14n16 - y_n8n16 >= 0
- y_n8n14 - y_n14n16 + y_n8n16 >= - 1
y_n8n14 + y_n14n17 - y_n8n17 >= 0
- y_n8n14 - y_n14n17 + y_n8n17 >= - 1
y_n8n14 + y_n14n18 - y_n8n18 >= 0
- y_n8n14 - y_n14n18 + y_n8n18 >= - 1
y_n8n15 + y_n15n16 - y_n8n16 >= 0
- y_n8n15 - y_n15n16 + y_n8n16 >= - 1
y_n8n15 + y_n15n17 - y_n8n17 >= 0
- y_n8n15 - y_n15n17 + y_n8n17 >= - 1
y_n8n15 + y_n15n18 - y_n8n18 >= 0
- y_n8n15 - y_n15n18 + y_n8n18 >= - 1
y_n8n16 + y_n16n17 - y_n8n17 >= 0
- y_n8n16 - y_n16n17 + y_n8n17 >= - 1
y_n8n16 + y_n16n18 - y_n8n18 >= 0
- y_n8n16 - y_n16n18 + y_n8n18 >= - 1
y_n8n17 + y_n17n18 - y_n8n18 >= 0
- y_n8n17 - y_n17n18 + y_n8n18 >= - 1
y_n9n10 + y_n10n11 - y_n9n11 >= 0
- y_n9n10 - y_n10n11 + y_n9n11 >= - 1
y_n9n10 + y_n10n12 - y_n9n12 >= 0
- y_n9n10 - y_n10n12 + y_n9n12 >= - 1
y_n9n10 + y_n10n13 - y_n9n13 >= 0
- y_n9n10 - y_n10n13 + y_n9n13 >= - 1
y_n9n10 + y_n10n14 - y_n9n14 >= 0
- y_n9n10 - y_n10n14 + y_n9n14 >= - 1
y_n9n10 + y_n10n15 - y_n9n15 >= 0
- y_n9n10 - y_n10n15 + y_n9n15 >= - 1
y_n9n10 + y_n10n16 - y_n9n16 >= 0
- y_n9n10 - y_n10n16 + y_n9n16 >= - 1
y_n9n10 + y_n10n17 - y_n9n17 >= 0
- y_n9n10 - y_n10n17 + y_n9n17 >= - 1
y_n9n10 + y_n10n18 - y_n9n18 >= 0
- y_n9n10 - y_n10n18 + y_n9n18 >= - 1
y_n9n11 + y_n11n12 - y_n9n12 >= 0
- y_n9n11 - y_n11n12 + y_n9n12 >= - 1
y_n9n11 + y_n11n13 - y_n9n13 >= 0
- y_n9n11 - y_n11n13 + y_n9n13 >= - 1
y_n9n11 + y_n11n14 - y_n9n14 >= 0
- y_n9n11 - y_n11n14 + y_n9n14 >= - 1
y_n9n11 + y_n11n15 - y_n9n15 >= 0
- y_n9n11 - y_n11n15 + y_n9n15 >= - 1
y_n9n11 + y_n11n16 - y_n9n16 >= 0
- y_n9n11 - y_n11n16 + y_n9n16 >= - 1
y_n9n11 + y_n11n17 - y_n9n17 >= 0
- y_n9n11 - y_n11n17 + y_n9n17 >= - 1
y_n9n11 + y_n11n18 - y_n9n18 >= 0
- y_n9n11 - y_n11n18 + y_n9n18 >= - 1
y_n9n12 + y_n12n13 - y_n9n13 >= 0
- y_n9n12 - y_n12n13 + y_n9n13 >= - 1
y_n9n12 + y_n12n14 - y_n9n14 >= 0
- y_n9n12 - y_n12n14 + y_n9n14 >= - 1
y_n9n12 + y_n12n15 - y_n9n15 >= 0
- y_n9n12 - y_n12n15 + y_n9n15 >= - 1
y_n9n12 + y_n12n16 - y_n9n16 >= 0
- y_n9n12 - y_n12n16 + y_n9n16 >= - 1
y_n9n12 + y_n12n17 - y_n9n17 >= 0
- y_n9n12 - y_n12n17 + y_n9n17 >= - 1
y_n9n12 + y_n12n18 - y_n9n18 >= 0
- y_n9n12 - y_n12n18 + y_n9n18 >= - 1
y_n9n13 + y_n13n14 - y_n9n14 >= 0
- y_n9n13 - y_n13n14 + y_n9n14 >= - 1
y_n9n13 + y_n13n15 - y_n9n15 >= 0
- y_n9n13 - y_n13n15 + y_n9n15 >= - 1
y_n9n13 + y_n13n16 - y_n9n16 >= 0
- y_n9n13 - y_n13n16 + y_n9n16 >= - 1
y_n9n13 + y_n13n17 - y_n9n17 >= 0
- y_n9n13 - y_n13n17 + y_n9n17 >= - 1
y_n9n13 + y_n13n18 - y_n9n18 >= 0
- y_n9n13 - y_n13n18 + y_n9n18 >= - 1
y_n9n14 + y_n14n15 - y_n9n15 >= 0
- y_n9n14 - y_n14n15 + y_n9n15 >= - 1
y_n9n14 + y_n14n16 - y_n9n16 >= 0
- y_n9n14 - y_n14n16 + y_n9n16 >= - 1
y_n9n14 + y_n14n17 - y_n9n17 >= 0
- y_n9n14 - y_n14n17 + y_n9n17 >= - 1
y_n9n14 + y_n14n18 - y_n9n18 >= 0
- y_n9n14 - y_n14n18 + y_n9n18 >= - 1
y_n9n15 + y_n15n16 - y_n9n16 >= 0
- y_n9n15 - y_n15n16 + y_n9n16 >= - 1
y_n9n15 + y_n15n17 - y_n9n17 >= 0
- y_n9n15 - y_n15n17 + y_n9n17 >= - 1
y_n9n15 + y_n15n18 - y_n9n18 >= 0
- y_n9n15 - y_n15n18 + y_n9n18 >= - 1
y_n9n16 + y_n16n17 - y_n9n17 >= 0
- y_n9n16 - y_n16n17 + y_n9n17 >= - 1
y_n9n16 + y_n16n18 - y_n9n18 >= 0
- y_n9n16 - y_n16n18 + y_n9n18 >= - 1
y_n9n17 + y_n17n18 - y_n9n18 >= 0
- y_n9n17 - y_n17n18 + y_n9n18 >= - 1
y_n10n11 + y_n11n12 - y_n10n12 >= 0
- y_n10n11 - y_n11n12 + y_n10n12 >= - 1
y_n10n11 + y_n11n13 - y_n10n13 >= 0
- y_n10n11 - y_n11n13 + y_n10n13 >= - 1
y_n10n11 + y_n11n14 - y_n10n14 >= 0
- y_n10n11 - y_n11n14 + y_n10n14 >= - 1
y_n10n11 + y_n11n15 - y_n10n15 >= 0
- y_n10n11 - y_n11n15 + y_n10n15 >= - 1
y_n10n11 + y_n11n16 - y_n10n16 >= 0
- y_n10n11 - y_n11n16 + y_n10n16 >= - 1
y_n10n11 + y_n11n17 - y_n10n17 >= 0
- y_n10n11 - y_n11n17 + y_n10n17 >= - 1
y_n10n11 + y_n11n18 - y_n10n18 >= 0
- y_n10n11 - y_n11n18 + y_n10n18 >= - 1
y_n10n12 + y_n12n13 - y_n10n13 >= 0
- y_n10n12 - y_n12n13 + y_n10n13 >= - 1
y_n10n12 + y_n12n14 - y_n10n14 >= 0
- y_n10n12 - y_n12n14 + y_n10n14 >= - 1
y_n10n12 + y_n12n15 - y_n10n15 >= 0
- y_n10n12 - y_n12n15 + y_n10n15 >= - 1
y_n10n12 + y_n12n16 - y_n10n16 >= 0
- y_n10n12 - y_n12n16 + y_n10n16 >= - 1
y_n10n12 + y_n12n17 - y_n10n17 >= 0
- y_n10n12 - y_n12n17 + y_n10n17 >= - 1
y_n10n12 + y_n12n18 - y_n10n18 >= 0
- y_n10n12 - y_n12n18 + y_n10n18 >= - 1
y_n10n13 + y_n13n14 - y_n10n14 >= 0
- y_n10n13 - y_n13n14 + y_n10n14 >= - 1
y_n10n13 + y_n13n15 - y_n10n15 >= 0
- y_n10n13 - y_n13n15 + y_n10n15 >= - 1
y_n10n13 + y_n13n16 - y_n10n16 >= 0
- y_n10n13 - y_n13n16 + y_n10n16 >= - 1
y_n10n13 + y_n13n17 - y_n10n17 >= 0
- y_n10n13 - y_n13n17 + y_n10n17 >= - 1
y_n10n13 + y_n13n18 - y_n10n18 >= 0
- y_n10n13 - y_n13n18 + y_n10n18 >= - 1
y_n10n14 + y_n14n15 - y_n10n15 >= 0
- y_n10n14 - y_n14n15 + y_n10n15 >= - 1
y_n10n14 + y_n14n16 - y_n10n16 >= 0
- y_n10n14 - y_n14n16 + y_n10n16 >= - 1
y_n10n14 + y_n14n17 - y_n10n17 >= 0
- y_n10n14 - y_n14n17 + y_n10n17 >= - 1
y_n10n14 + y_n14n18 - y_n10n18 >= 0
- y_n10n14 - y_n14n18 + y_n10n18 >= - 1
y_n10n15 + y_n15n16 - y_n10n16 >= 0
- y_n10n15 - y_n15n16 + y_n10n16 >= - 1
y_n10n15 + y_n15n17 - y_n10n17 >= 0
- y_n10n15 - y_n15n17 + y_n10n17 >= - 1
y_n10n15 + y_n15n18 - y_n10n18 >= 0
- y_n10n15 - y_n15n18 + y_n10n18 >= - 1
y_n10n16 + y_n16n17 - y_n10n17 >= 0
- y_n10n16 - y_n16n17 + y_n10n17 >= - 1
y_n10n16 + y_n16n18 - y_n10n18 >= 0
- y_n10n16 - y_n16n18 + y_n10n18 >= - 1
y_n10n17 + y_n17n18 - y_n10n18 >= 0
- y_n10n17 - y_n17n18 + y_n10n18 >= - 1
y_n11n12 + y_n12n13 - y_n11n13 >= 0
- y_n11n12 - y_n12n13 + y_n11n13 >= - 1
y_n11n12 + y_n12n14 - y_n11n14 >= 0
- y_n11n12 - y_n12n14 + y_n11n14 >= - 1
y_n11n12 + y_n12n15 - y_n11n15 >= 0
- y_n11n12 - y_n12n15 + y_n11n15 >= - 1
y_n11n12 + y_n12n16 - y_n11n16 >= 0
- y_n11n12 - y_n12n16 + y_n11n16 >= - 1
y_n11n12 + y_n12n17 - y_n11n17 >= 0
- y_n11n12 - y_n12n17 + y_n11n17 >= - 1
y_n11n12 + y_n12n18 - y_n11n18 >= 0
- y_n11n12 - y_n12n18 + y_n11n18 >= - 1
y_n11n13 + y_n13n14 - y_n11n14 >= 0
- y_n11n13 - y_n13n14 + y_n11n14 >= - 1
y_n11n13 + y_n13n15 - y_n11n15 >= 0
- y_n11n13 - y_n13n15 + y_n11n15 >= - 1
y_n11n13 + y_n13n16 - y_n11n16 >= 0
- y_n11n13 - y_n13n16 + y_n11n16 >= - 1
y_n11n13 + y_n13n17 - y_n11n17 >= 0
- y_n11n13 - y_n13n17 + y_n11n17 >= - 1
y_n11n13 + y_n13n18 - y_n11n18 >= 0
- y_n11n13 - y_n13n18 + y_n11n18 >= - 1
y_n11n14 + y_n14n15 - y_n11n15 >= 0
- y_n11n14 - y_n14n15 + y_n11n15 >= - 1
y_n11n14 + y_n14n16 - y_n11n16 >= 0
- y_n11n14 - y_n14n16 + y_n11n16 >= - 1
y_n11n14 + y_n14n17 - y_n11n17 >= 0
- y_n11n14 - y_n14n17 + y_n11n17 >= - 1
y_n11n14 + y_n14n18 - y_n11n18 >= 0
- y_n11n14 - y_n14n18 + y_n11n18 >= - 1
y_n11n15 + y_n15n16 - y_n11n16 >= 0
- y_n11n15 - y_n15n16 + y_n11n16 >= - 1
y_n11n15 + y_n15n17 - y_n11n17 >= 0
- y_n11n15 - y_n15n17 + y_n11n17 >= - 1
y_n11n15 + y_n15n18 - y_n11n18 >= 0
- y_n11n15 - y_n15n18 + y_n11n18 >= - 1
y_n11n16 + y_n16n17 - y_n11n17 >= 0
- y_n11n16 - y_n16n17 + y_n11n17 >= - 1
y_n11n16 + y_n16n18 - y_n11n18 >= 0
- y_n11n16 - y_n16n18 + y_n11n18 >= - 1
y_n11n17 + y_n17n18 - y_n11n18 >= 0
- y_n11n17 - y_n17n18 + y_n11n18 >= - 1
y_n12n13 + y_n13n14 - y_n12n14 >= 0
- y_n12n13 - y_n13n14 + y_n12n14 >= - 1
y_n12n13 + y_n13n15 - y_n12n15 >= 0
- y_n12n13 - y_n13n15 + y_n12n15 >= - 1
y_n12n13 + y_n13n16 - y_n12n16 >= 0
- y_n12n13 - y_n13n16 + y_n12n16 >= - 1
y_n12n13 + y_n13n17 - y_n12n17 >= 0
- y_n12n13 - y_n13n17 + y_n12n17 >= - 1
y_n12n13 + y_n13n18 - y_n12n18 >= 0
- y_n12n13 - y_n13n18 + y_n12n18 >= - 1
y_n12n14 + y_n14n15 - y_n12n15 >= 0
- y_n12n14 - y_n14n15 + y_n12n15 >= - 1
y_n12n14 + y_n14n16 - y_n12n16 >= 0
- y_n12n14 - y_n14n16 + y_n12n16 >= - 1
y_n12n14 + y_n14n17 - y_n12n17 >= 0
- y_n12n14 - y_n14n17 + y_n12n17 >= - 1
y_n12n14 + y_n14n18 - y_n12n18 >= 0
- y_n12n14 - y_n14n18 + y_n12n18 >= - 1
y_n12n15 + y_n15n16 - y_n12n16 >= 0
- y_n12n15 - y_n15n16 + y_n12n16 >= - 1
y_n12n15 + y_n15n17 - y_n12n17 >= 0
- y_n12n15 - y_n15n17 + y_n12n17 >= - 1
y_n12n15 + y_n15n18 - y_n12n18 >= 0
- y_n12n15 - y_n15n18 + y_n12n18 >= - 1
y_n12n16 + y_n16n17 - y_n12n17 >= 0
- y_n12n16 - y_n16n17 + y_n12n17 >= - 1
y_n12n16 + y_n16n18 - y_n12n18 >= 0
- y_n12n16 - y_n16n18 + y_n12n18 >= - 1
y_n12n17 + y_n17n18 - y_n12n18 >= 0
- y_n12n17 - y_n17n18 + y_n12n18 >= - 1
y_n13n14 + y_n14n15 - y_n13n15 >= 0
- y_n13n14 - y_n14n15 + y_n13n15 >= - 1
y_n13n14 + y_n14n16 - y_n13n16 >= 0
- y_n13n14 - y_n14n16 + y_n13n16 >= - 1
y_n13n14 + y_n14n17 - y_n13n17 >= 0
- y_n13n14 - y_n14n17 + y_n13n17 >= - 1
y_n13n14 + y_n14n18 - y_n13n18 >= 0
- y_n13n14 - y_n14n18 + y_n13n18 >= - 1
y_n13n15 + y_n15n16 - y_n13n16 >= 0
- y_n13n15 - y_n15n16 + y_n13n16 >= - 1
y_n13n15 + y_n15n17 - y_n13n17 >= 0
- y_n13n15 - y_n15n17 + y_n13n17 >= - 1
y_n13n15 + y_n15n18 - y_n13n18 >= 0
- y_n13n15 - y_n15n18 + y_n13n18 >= - 1
y_n13n16 + y_n16n17 - y_n13n17 >= 0
- y_n13n16 - y_n16n17 + y_n13n17 >= - 1
y_n13n16 + y_n16n18 - y_n13n18 >= 0
- y_n13n16 - y_n16n18 + y_n13n18 >= - 1
y_n13n17 + y_n17n18 - y_n13n18 >= 0
- y_n13n17 - y_n17n18 + y_n13n18 >= - 1
y_n14n15 + y_n15n16 - y_n14n16 >= 0
- y_n14n15 - y_n15n16 + y_n14n16 >= - 1
y_n14n15 + y_n15n17 - y_n14n17 >= 0
- y_n14n15 - y_n15n17 + y_n14n17 >= - 1
y_n14n15 + y_n15n18 - y_n14n18 >= 0
- y_n14n15 - y_n15n18 + y_n14n18 >= - 1
y_n14n16 + y_n16n17 - y_n14n17 >= 0
- y_n14n16 - y_n16n17 + y_n14n17 >= - 1
y_n14n16 + y_n16n18 - y_n14n18 >= 0
- y_n14n16 - y_n16n18 + y_n14n18 >= - 1
y_n14n17 + y_n17n18 - y_n14n18 >= 0
- y_n14n17 - y_n17n18 + y_n14n18 >= - 1
y_n15n16 + y_n16n17 - y_n15n17 >= 0
- y_n15n16 - y_n16n17 + y_n15n17 >= - 1
y_n15n16 + y_n16n18 - y_n15n18 >= 0
- y_n15n16 - y_n16n18 + y_n15n18 >= - 1
y_n15n17 + y_n17n18 - y_n15n18 >= 0
- y_n15n17 - y_n17n18 + y_n15n18 >= - 1
y_n16n17 + y_n17n18 - y_n16n18 >= 0
- y_n16n17 - y_n17n18 + y_n16n18 >= - 1
pos_n0 + y_n0n1 + y_n0n2 + y_n0n3 + y_n0n4 + y_n0n5 + y_n0n6 + y_n0n7 + y_n0n8 + y_n0n9 + y_n0n10 + y_n0n11 + y_n0n12 + y_n0n13 + y_n0n14 + y_n0n15 + y_n0n16 + y_n0n17 + y_n0n18 = 18
pos_n1 - y_n0n1 + y_n1n2 + y_n1n3 + y_n1n4 + y_n1n5 + y_n1n6 + y_n1n7 + y_n1n8 + y_n1n9 + y_n1n10 + y_n1n11 + y_n1n12 + y_n1n13 + y_n1n14 + y_n1n15 + y_n1n16 + y_n1n17 + y_n1n18 = 17
pos_n2 - y_n0n2 - y_n1n2 + y_n2n3 + y_n2n4 + y_n2n5 + y_n2n6 + y_n2n7 + y_n2n8 + y_n2n9 + y_n2n10 + y_n2n11 + y_n2n12 + y_n2n13 + y_n2n14 + y_n2n15 + y_n2n16 + y_n2n17 + y_n2n18 = 16
pos_n3 - y_n0n3 - y_n1n3 - y_n2n3 + y_n3n4 + y_n3n5 + y_n3n6 + y_n3n7 + y_n3n8 + y_n3n9 + y_n3n10 + y_n3n11 + y_n3n12 + y_n3n13 + y_n3n14 + y_n3n15 + y_n3n16 + y_n3n17 + y_n3n18 = 15
pos_n4 - y_n0n4 - y_n1n4 - y_n2n4 - y_n3n4 + y_n4n5 + y_n4n6 + y_n4n7 + y_n4n8 + y_n4n9 + y_n4n10 + y_n4n11 + y_n4n12 + y_n4n13 + y_n4n14 + y_n4n15 + y_n4n16 + y_n4n17 + y_n4n18 = 14
pos_n5 - y_n0n5 - y_n1n5 - y_n2n5 - y_n3n5 - y_n4n5 + y_n5n6 + y_n5n7 + y_n5n8 + y_n5n9 + y_n5n10 + y_n5n11 + y_n5n12 + y_n5n13 + y_n5n14 + y_n5n15 + y_n5n16 + y_n5n17 + y_n5n18 = 13
pos_n6 - y_n0n6 - y_n1n6 - y_n2n6 - y_n3n6 - y_n4n6 - y_n5n6 + y_n6n7 + y_n6n8 + y_n6n9 + y_n6n10 + y_n6n11 + y_n6n12 + y_n6n13 + y_n6n14 + y_n6n15 + y_n6n16 + y_n6n17 + y_n6n18 = 12
pos_n7 - y_n0n7 - y_n1n7 - y_n2n7 - y_n3n7 - y_n4n7 - y_n5n7 - y_n6n7 + y_n7n8 + y_n7n9 + y_n7n10 + y_n7n11 + y_n7n12 + y_n7n13 + y_n7n14 + y_n7n15 + y_n7n16 + y_n7n17 + y_n7n18 = 11
pos_n8 - y_n0n8 - y_n1n8 - y_n2n8 - y_n3n8 - y_n4n8 - y_n5n8 - y_n6n8 - y_n7n8 + y_n8n9 + y_n8n10 + y_n8n11 + y_n8n12 + y_n8n13 + y_n8n14 + y_n8n15 + y_n8n16 + y_n8n17 + y_n8n18 = 10
pos_n9 - y_n0n9 - y_n1n9 - y_n2n9 - y_n3n9 - y_n4n9 - y_n5n9 - y_n6n9 - y_n7n9 - y_n8n9 + y_n9n10 + y_n9n11 + y_n9n12 + y_n9n13 + y_n9n14 + y_n9n15 + y_n9n16 + y_n9n17 + y_n9n18 = 9
pos_n10 - y_n0n10 - y_n1n10 - y_n2n10 - y_n3n10 - y_n4n10 - y_n5n10 - y_n6n10 - y_n7n10 - y_n8n10 - y_n9n10 + y_n10n11 + y_n10n12 + y_n10n13 + y_n10n14 + y_n10n15 + y_n10n16 + y_n10n17 + y_n10n18 = 8
pos_n11 - y_n0n11 - y_n1n11 - y_n2n11 - y_n3n11 - y_n4n11 - y_n5n11 - y_n6n11 - y_n7n11 - y_n8n11 - y_n9n11 - y_n10n11 + y_n11n12 + y_n11n13 + y_n11n14 + y_n11n15 + y_n11n16 + y_n11n17 + y_n11n18 = 7
pos_n12 - y_n0n12 - y_n1n12 - y_n2n12 - y_n3n12 - y_n4n12 - y_n5n12 - y_n6n12 - y_n7n12 - y_n8n12 - y_n9n12 - y_n10n12 - y_n11n12 + y_n12n13 + y_n12n14 + y_n12n15 + y_n12n16 + y_n12n17 + y_n12n18 = 6
pos_n13 - y_n0n13 - y_n1n13 - y_n2n13 - y_n3n13 - y_n4n13 - y_n5n13 - y_n6n13 - y_n7n13 - y_n8n13 - y_n9n13 - y_n10n13 - y_n11n13 - y_n12n13 + y_n13n14 + y_n13n15 + y_n13n16 + y_n13n17 + y_n13n18 = 5
pos_n14 - y_n0n14 - y_n1n14 - y_n2n14 - y_n3n14 - y_n4n14 - y_n5n14 - y_n6n14 - y_n7n14 - y_n8n14 - y_n9n14 - y_n10n14 - y_n11n14 - y_n12n14 - y_n13n14 + y_n14n15 + y_n14n16 + y_n14n17 + y_n14n18 = 4
pos_n15 - y_n0n15 - y_n1n15 - y_n2n15 - y_n3n15 - y_n4n15 - y_n5n15 - y_n6n15 - y_n7n15 - y_n8n15 - y_n9n15 - y_n10n15 - y_n11n15 - y_n12n15 - y_n13n15 - y_n14n15 + y_n15n16 + y_n15n17 + y_n15n18 = 3
pos_n16 - y_n0n16 - y_n1n16 - y_n2n16 - y_n3n16 - y_n4n16 - y_n5n16 - y_n6n16 - y_n7n16 - y_n8n16 - y_n9n16 - y_n10n16 - y_n11n16 - y_n12n16 - y_n13n16 - y_n14n16 - y_n15n16 + y_n16n17 + y_n16n18 = 2
pos_n17 - y_n0n17 - y_n1n17 - y_n2n17 - y_n3n17 - y_n4n17 - y_n5n17 - y_n6n17 - y_n7n17 - y_n8n17 - y_n9n17 - y_n10n17 - y_n11n17 - y_n12n17 - y_n13n17 - y_n14n17 - y_n15n17 - y_n16n17 + y_n17n18 = 1
pos_n18 - y_n0n18 - y_n1n18 - y_n2n18 - y_n3n18 - y_n4n18 - y_n5n18 - y_n6n18 - y_n7n18 - y_n8n18 - y_n9n18 - y_n10n18 - y_n11n18 - y_n12n18 - y_n13n18 - y_n14n18 - y_n15n18 - y_n16n18 - y_n17n18 = 0
pos_n2 - pos_n1 + 20 z_n1n2 <= 21.01
pos_n2 - pos_n1 - 20 z_n1n2 >= -21.01
pos_n1 <= 19
pos_n2 <= 19
pos_n3 - pos_n1 + 20 z_n1n3 <= 21.01
pos_n3 - pos_n1 - 20 z_n1n3 >= -21.01
pos_n1 <= 19
pos_n3 <= 19
pos_n9 - pos_n1 + 20 z_n1n9 <= 21.01
pos_n9 - pos_n1 - 20 z_n1n9 >= -21.01
pos_n1 <= 19
pos_n9 <= 19
pos_n3 - pos_n2 + 20 z_n2n3 <= 21.01
pos_n3 - pos_n2 - 20 z_n2n3 >= -21.01
pos_n2 <= 19
pos_n3 <= 19
pos_n9 - pos_n2 + 20 z_n2n9 <= 21.01
pos_n9 - pos_n2 - 20 z_n2n9 >= -21.01
pos_n2 <= 19
pos_n9 <= 19
pos_n9 - pos_n3 + 20 z_n3n9 <= 21.01
pos_n9 - pos_n3 - 20 z_n3n9 >= -21.01
pos_n3 <= 19
pos_n9 <= 19
pos_n2 - pos_n0 + 20 z_n0n2 <= 21.01
pos_n2 - pos_n0 - 20 z_n0n2 >= -21.01
pos_n0 <= 19
pos_n2 <= 19
pos_n3 - pos_n0 + 20 z_n0n3 <= 21.01
pos_n3 - pos_n0 - 20 z_n0n3 >= -21.01
pos_n0 <= 19
pos_n3 <= 19
pos_n18 - pos_n0 + 20 z_n0n18 <= 21.01
pos_n18 - pos_n0 - 20 z_n0n18 >= -21.01
pos_n0 <= 19
pos_n18 <= 19
pos_n3 - pos_n2 + 20 z_n2n3 <= 21.01
pos_n3 - pos_n2 - 20 z_n2n3 >= -21.01
pos_n2 <= 19
pos_n3 <= 19
pos_n18 - pos_n2 + 20 z_n2n18 <= 21.01
pos_n18 - pos_n2 - 20 z_n2n18 >= -21.01
pos_n2 <= 19
pos_n18 <= 19
pos_n18 - pos_n3 + 20 z_n3n18 <= 21.01
pos_n18 - pos_n3 - 20 z_n3n18 >= -21.01
pos_n3 <= 19
pos_n18 <= 19
pos_n1 - pos_n0 + 20 z_n0n1 <= 21.01
pos_n1 - pos_n0 - 20 z_n0n1 >= -21.01
pos_n0 <= 19
pos_n1 <= 19
pos_n0 - pos_n1 + 20 z_n0n1 <= 21.01
pos_n0 - pos_n1 - 20 z_n0n1 >= -21.01
pos_n1 <= 19
pos_n0 <= 19
pos_n6 - pos_n1 + 20 z_n1n6 <= 21.01
pos_n6 - pos_n1 - 20 z_n1n6 >= -21.01
pos_n1 <= 19
pos_n6 <= 19
pos_n6 - pos_n0 + 20 z_n0n6 <= 21.01
pos_n6 - pos_n0 - 20 z_n0n6 >= -21.01
pos_n0 <= 19
pos_n6 <= 19
pos_n6 - pos_n5 + 20 z_n5n6 <= 21.01
pos_n6 - pos_n5 - 20 z_n5n6 >= -21.01
pos_n5 <= 19
pos_n6 <= 19
pos_n10 - pos_n5 + 20 z_n5n10 <= 21.01
pos_n10 - pos_n5 - 20 z_n5n10 >= -21.01
pos_n5 <= 19
pos_n10 <= 19
pos_n10 - pos_n6 + 20 z_n6n10 <= 21.01
pos_n10 - pos_n6 - 20 z_n6n10 >= -21.01
pos_n6 <= 19
pos_n10 <= 19
pos_n6 - pos_n4 + 20 z_n4n6 <= 21.01
pos_n6 - pos_n4 - 20 z_n4n6 >= -21.01
pos_n4 <= 19
pos_n6 <= 19
pos_n7 - pos_n4 + 20 z_n4n7 <= 21.01
pos_n7 - pos_n4 - 20 z_n4n7 >= -21.01
pos_n4 <= 19
pos_n7 <= 19
pos_n16 - pos_n4 + 20 z_n4n16 <= 21.01
pos_n16 - pos_n4 - 20 z_n4n16 >= -21.01
pos_n4 <= 19
pos_n16 <= 19
pos_n17 - pos_n4 + 20 z_n4n17 <= 21.01
pos_n17 - pos_n4 - 20 z_n4n17 >= -21.01
pos_n4 <= 19
pos_n17 <= 19
pos_n7 - pos_n6 + 20 z_n6n7 <= 21.01
pos_n7 - pos_n6 - 20 z_n6n7 >= -21.01
pos_n6 <= 19
pos_n7 <= 19
pos_n16 - pos_n6 + 20 z_n6n16 <= 21.01
pos_n16 - pos_n6 - 20 z_n6n16 >= -21.01
pos_n6 <= 19
pos_n16 <= 19
pos_n17 - pos_n6 + 20 z_n6n17 <= 21.01
pos_n17 - pos_n6 - 20 z_n6n17 >= -21.01
pos_n6 <= 19
pos_n17 <= 19
pos_n16 - pos_n7 + 20 z_n7n16 <= 21.01
pos_n16 - pos_n7 - 20 z_n7n16 >= -21.01
pos_n7 <= 19
pos_n16 <= 19
pos_n17 - pos_n7 + 20 z_n7n17 <= 21.01
pos_n17 - pos_n7 - 20 z_n7n17 >= -21.01
pos_n7 <= 19
pos_n17 <= 19
pos_n17 - pos_n16 + 20 z_n16n17 <= 21.01
pos_n17 - pos_n16 - 20 z_n16n17 >= -21.01
pos_n16 <= 19
pos_n17 <= 19
pos_n5 - pos_n4 + 20 z_n4n5 <= 21.01
pos_n5 - pos_n4 - 20 z_n4n5 >= -21.01
pos_n4 <= 19
pos_n5 <= 19
pos_n7 - pos_n4 + 20 z_n4n7 <= 21.01
pos_n7 - pos_n4 - 20 z_n4n7 >= -21.01
pos_n4 <= 19
pos_n7 <= 19
pos_n3 - pos_n4 + 20 z_n3n4 <= 21.01
pos_n3 - pos_n4 - 20 z_n3n4 >= -21.01
pos_n4 <= 19
pos_n3 <= 19
pos_n7 - pos_n5 + 20 z_n5n7 <= 21.01
pos_n7 - pos_n5 - 20 z_n5n7 >= -21.01
pos_n5 <= 19
pos_n7 <= 19
pos_n3 - pos_n5 + 20 z_n3n5 <= 21.01
pos_n3 - pos_n5 - 20 z_n3n5 >= -21.01
pos_n5 <= 19
pos_n3 <= 19
pos_n3 - pos_n7 + 20 z_n3n7 <= 21.01
pos_n3 - pos_n7 - 20 z_n3n7 >= -21.01
pos_n7 <= 19
pos_n3 <= 19
pos_n6 - pos_n5 + 20 z_n5n6 <= 21.01
pos_n6 - pos_n5 - 20 z_n5n6 >= -21.01
pos_n5 <= 19
pos_n6 <= 19
pos_n8 - pos_n5 + 20 z_n5n8 <= 21.01
pos_n8 - pos_n5 - 20 z_n5n8 >= -21.01
pos_n5 <= 19
pos_n8 <= 19
pos_n13 - pos_n5 + 20 z_n5n13 <= 21.01
pos_n13 - pos_n5 - 20 z_n5n13 >= -21.01
pos_n5 <= 19
pos_n13 <= 19
pos_n8 - pos_n6 + 20 z_n6n8 <= 21.01
pos_n8 - pos_n6 - 20 z_n6n8 >= -21.01
pos_n6 <= 19
pos_n8 <= 19
pos_n13 - pos_n6 + 20 z_n6n13 <= 21.01
pos_n13 - pos_n6 - 20 z_n6n13 >= -21.01
pos_n6 <= 19
pos_n13 <= 19
pos_n13 - pos_n8 + 20 z_n8n13 <= 21.01
pos_n13 - pos_n8 - 20 z_n8n13 >= -21.01
pos_n8 <= 19
pos_n13 <= 19
pos_n12 - pos_n9 + 20 z_n9n12 <= 21.01
pos_n12 - pos_n9 - 20 z_n9n12 >= -21.01
pos_n9 <= 19
pos_n12 <= 19
pos_n7 - pos_n9 + 20 z_n7n9 <= 21.01
pos_n7 - pos_n9 - 20 z_n7n9 >= -21.01
pos_n9 <= 19
pos_n7 <= 19
pos_n7 - pos_n12 + 20 z_n7n12 <= 21.01
pos_n7 - pos_n12 - 20 z_n7n12 >= -21.01
pos_n12 <= 19
pos_n7 <= 19
pos_n10 - pos_n8 + 20 z_n8n10 <= 21.01
pos_n10 - pos_n8 - 20 z_n8n10 >= -21.01
pos_n8 <= 19
pos_n10 <= 19
pos_n11 - pos_n8 + 20 z_n8n11 <= 21.01
pos_n11 - pos_n8 - 20 z_n8n11 >= -21.01
pos_n8 <= 19
pos_n11 <= 19
pos_n12 - pos_n8 + 20 z_n8n12 <= 21.01
pos_n12 - pos_n8 - 20 z_n8n12 >= -21.01
pos_n8 <= 19
pos_n12 <= 19
pos_n0 - pos_n8 + 20 z_n0n8 <= 21.01
pos_n0 - pos_n8 - 20 z_n0n8 >= -21.01
pos_n8 <= 19
pos_n0 <= 19
pos_n11 - pos_n10 + 20 z_n10n11 <= 21.01
pos_n11 - pos_n10 - 20 z_n10n11 >= -21.01
pos_n10 <= 19
pos_n11 <= 19
pos_n12 - pos_n10 + 20 z_n10n12 <= 21.01
pos_n12 - pos_n10 - 20 z_n10n12 >= -21.01
pos_n10 <= 19
pos_n12 <= 19
pos_n0 - pos_n10 + 20 z_n0n10 <= 21.01
pos_n0 - pos_n10 - 20 z_n0n10 >= -21.01
pos_n10 <= 19
pos_n0 <= 19
pos_n12 - pos_n11 + 20 z_n11n12 <= 21.01
pos_n12 - pos_n11 - 20 z_n11n12 >= -21.01
pos_n11 <= 19
pos_n12 <= 19
pos_n0 - pos_n11 + 20 z_n0n11 <= 21.01
pos_n0 - pos_n11 - 20 z_n0n11 >= -21.01
pos_n11 <= 19
pos_n0 <= 19
pos_n0 - pos_n12 + 20 z_n0n12 <= 21.01
pos_n0 - pos_n12 - 20 z_n0n12 >= -21.01
pos_n12 <= 19
pos_n0 <= 19
pos_n11 - pos_n9 + 20 z_n9n11 <= 21.01
pos_n11 - pos_n9 - 20 z_n9n11 >= -21.01
pos_n9 <= 19
pos_n11 <= 19
pos_n12 - pos_n9 + 20 z_n9n12 <= 21.01
pos_n12 - pos_n9 - 20 z_n9n12 >= -21.01
pos_n9 <= 19
pos_n12 <= 19
pos_n4 - pos_n9 + 20 z_n4n9 <= 21.01
pos_n4 - pos_n9 - 20 z_n4n9 >= -21.01
pos_n9 <= 19
pos_n4 <= 19
pos_n12 - pos_n11 + 20 z_n11n12 <= 21.01
pos_n12 - pos_n11 - 20 z_n11n12 >= -21.01
pos_n11 <= 19
pos_n12 <= 19
pos_n4 - pos_n11 + 20 z_n4n11 <= 21.01
pos_n4 - pos_n11 - 20 z_n4n11 >= -21.01
pos_n11 <= 19
pos_n4 <= 19
pos_n4 - pos_n12 + 20 z_n4n12 <= 21.01
pos_n4 - pos_n12 - 20 z_n4n12 >= -21.01
pos_n12 <= 19
pos_n4 <= 19
pos_n10 - pos_n9 + 20 z_n9n10 <= 21.01
pos_n10 - pos_n9 - 20 z_n9n10 >= -21.01
pos_n9 <= 19
pos_n10 <= 19
pos_n12 - pos_n9 + 20 z_n9n12 <= 21.01
pos_n12 - pos_n9 - 20 z_n9n12 >= -21.01
pos_n9 <= 19
pos_n12 <= 19
pos_n12 - pos_n10 + 20 z_n10n12 <= 21.01
pos_n12 - pos_n10 - 20 z_n10n12 >= -21.01
pos_n10 <= 19
pos_n12 <= 19
pos_n9 - pos_n8 + 20 z_n8n9 <= 21.01
pos_n9 - pos_n8 - 20 z_n8n9 >= -21.01
pos_n8 <= 19
pos_n9 <= 19
pos_n10 - pos_n8 + 20 z_n8n10 <= 21.01
pos_n10 - pos_n8 - 20 z_n8n10 >= -21.01
pos_n8 <= 19
pos_n10 <= 19
pos_n11 - pos_n8 + 20 z_n8n11 <= 21.01
pos_n11 - pos_n8 - 20 z_n8n11 >= -21.01
pos_n8 <= 19
pos_n11 <= 19
pos_n18 - pos_n8 + 20 z_n8n18 <= 21.01
pos_n18 - pos_n8 - 20 z_n8n18 >= -21.01
pos_n8 <= 19
pos_n18 <= 19
pos_n10 - pos_n9 + 20 z_n9n10 <= 21.01
pos_n10 - pos_n9 - 20 z_n9n10 >= -21.01
pos_n9 <= 19
pos_n10 <= 19
pos_n11 - pos_n9 + 20 z_n9n11 <= 21.01
pos_n11 - pos_n9 - 20 z_n9n11 >= -21.01
pos_n9 <= 19
pos_n11 <= 19
pos_n18 - pos_n9 + 20 z_n9n18 <= 21.01
pos_n18 - pos_n9 - 20 z_n9n18 >= -21.01
pos_n9 <= 19
pos_n18 <= 19
pos_n11 - pos_n10 + 20 z_n10n11 <= 21.01
pos_n11 - pos_n10 - 20 z_n10n11 >= -21.01
pos_n10 <= 19
pos_n11 <= 19
pos_n18 - pos_n10 + 20 z_n10n18 <= 21.01
pos_n18 - pos_n10 - 20 z_n10n18 >= -21.01
pos_n10 <= 19
pos_n18 <= 19
pos_n18 - pos_n11 + 20 z_n11n18 <= 21.01
pos_n18 - pos_n11 - 20 z_n11n18 >= -21.01
pos_n11 <= 19
pos_n18 <= 19
pos_n15 - pos_n14 + 20 z_n14n15 <= 21.01
pos_n15 - pos_n14 - 20 z_n14n15 >= -21.01
pos_n14 <= 19
pos_n15 <= 19
pos_n16 - pos_n14 + 20 z_n14n16 <= 21.01
pos_n16 - pos_n14 - 20 z_n14n16 >= -21.01
pos_n14 <= 19
pos_n16 <= 19
pos_n17 - pos_n14 + 20 z_n14n17 <= 21.01
pos_n17 - pos_n14 - 20 z_n14n17 >= -21.01
pos_n14 <= 19
pos_n17 <= 19
pos_n7 - pos_n14 + 20 z_n7n14 <= 21.01
pos_n7 - pos_n14 - 20 z_n7n14 >= -21.01
pos_n14 <= 19
pos_n7 <= 19
pos_n16 - pos_n15 + 20 z_n15n16 <= 21.01
pos_n16 - pos_n15 - 20 z_n15n16 >= -21.01
pos_n15 <= 19
pos_n16 <= 19
pos_n17 - pos_n15 + 20 z_n15n17 <= 21.01
pos_n17 - pos_n15 - 20 z_n15n17 >= -21.01
pos_n15 <= 19
pos_n17 <= 19
pos_n7 - pos_n15 + 20 z_n7n15 <= 21.01
pos_n7 - pos_n15 - 20 z_n7n15 >= -21.01
pos_n15 <= 19
pos_n7 <= 19
pos_n17 - pos_n16 + 20 z_n16n17 <= 21.01
pos_n17 - pos_n16 - 20 z_n16n17 >= -21.01
pos_n16 <= 19
pos_n17 <= 19
pos_n7 - pos_n16 + 20 z_n7n16 <= 21.01
pos_n7 - pos_n16 - 20 z_n7n16 >= -21.01
pos_n16 <= 19
pos_n7 <= 19
pos_n7 - pos_n17 + 20 z_n7n17 <= 21.01
pos_n7 - pos_n17 - 20 z_n7n17 >= -21.01
pos_n17 <= 19
pos_n7 <= 19
pos_n15 - pos_n13 + 20 z_n13n15 <= 21.01
pos_n15 - pos_n13 - 20 z_n13n15 >= -21.01
pos_n13 <= 19
pos_n15 <= 19
pos_n16 - pos_n13 + 20 z_n13n16 <= 21.01
pos_n16 - pos_n13 - 20 z_n13n16 >= -21.01
pos_n13 <= 19
pos_n16 <= 19
pos_n17 - pos_n13 + 20 z_n13n17 <= 21.01
pos_n17 - pos_n13 - 20 z_n13n17 >= -21.01
pos_n13 <= 19
pos_n17 <= 19
pos_n18 - pos_n13 + 20 z_n13n18 <= 21.01
pos_n18 - pos_n13 - 20 z_n13n18 >= -21.01
pos_n13 <= 19
pos_n18 <= 19
pos_n16 - pos_n15 + 20 z_n15n16 <= 21.01
pos_n16 - pos_n15 - 20 z_n15n16 >= -21.01
pos_n15 <= 19
pos_n16 <= 19
pos_n17 - pos_n15 + 20 z_n15n17 <= 21.01
pos_n17 - pos_n15 - 20 z_n15n17 >= -21.01
pos_n15 <= 19
pos_n17 <= 19
pos_n18 - pos_n15 + 20 z_n15n18 <= 21.01
pos_n18 - pos_n15 - 20 z_n15n18 >= -21.01
pos_n15 <= 19
pos_n18 <= 19
pos_n17 - pos_n16 + 20 z_n16n17 <= 21.01
pos_n17 - pos_n16 - 20 z_n16n17 >= -21.01
pos_n16 <= 19
pos_n17 <= 19
pos_n18 - pos_n16 + 20 z_n16n18 <= 21.01
pos_n18 - pos_n16 - 20 z_n16n18 >= -21.01
pos_n16 <= 19
pos_n18 <= 19
pos_n18 - pos_n17 + 20 z_n17n18 <= 21.01
pos_n18 - pos_n17 - 20 z_n17n18 >= -21.01
pos_n17 <= 19
pos_n18 <= 19
pos_n14 - pos_n13 + 20 z_n13n14 <= 21.01
pos_n14 - pos_n13 - 20 z_n13n14 >= -21.01
pos_n13 <= 19
pos_n14 <= 19
pos_n16 - pos_n13 + 20 z_n13n16 <= 21.01
pos_n16 - pos_n13 - 20 z_n13n16 >= -21.01
pos_n13 <= 19
pos_n16 <= 19
pos_n17 - pos_n13 + 20 z_n13n17 <= 21.01
pos_n17 - pos_n13 - 20 z_n13n17 >= -21.01
pos_n13 <= 19
pos_n17 <= 19
pos_n18 - pos_n13 + 20 z_n13n18 <= 21.01
pos_n18 - pos_n13 - 20 z_n13n18 >= -21.01
pos_n13 <= 19
pos_n18 <= 19
pos_n16 - pos_n14 + 20 z_n14n16 <= 21.01
pos_n16 - pos_n14 - 20 z_n14n16 >= -21.01
pos_n14 <= 19
pos_n16 <= 19
pos_n17 - pos_n14 + 20 z_n14n17 <= 21.01
pos_n17 - pos_n14 - 20 z_n14n17 >= -21.01
pos_n14 <= 19
pos_n17 <= 19
pos_n18 - pos_n14 + 20 z_n14n18 <= 21.01
pos_n18 - pos_n14 - 20 z_n14n18 >= -21.01
pos_n14 <= 19
pos_n18 <= 19
pos_n17 - pos_n16 + 20 z_n16n17 <= 21.01
pos_n17 - pos_n16 - 20 z_n16n17 >= -21.01
pos_n16 <= 19
pos_n17 <= 19
pos_n18 - pos_n16 + 20 z_n16n18 <= 21.01
pos_n18 - pos_n16 - 20 z_n16n18 >= -21.01
pos_n16 <= 19
pos_n18 <= 19
pos_n18 - pos_n17 + 20 z_n17n18 <= 21.01
pos_n18 - pos_n17 - 20 z_n17n18 >= -21.01
pos_n17 <= 19
pos_n18 <= 19
pos_n14 - pos_n13 + 20 z_n13n14 <= 21.01
pos_n14 - pos_n13 - 20 z_n13n14 >= -21.01
pos_n13 <= 19
pos_n14 <= 19
pos_n15 - pos_n13 + 20 z_n13n15 <= 21.01
pos_n15 - pos_n13 - 20 z_n13n15 >= -21.01
pos_n13 <= 19
pos_n15 <= 19
pos_n17 - pos_n13 + 20 z_n13n17 <= 21.01
pos_n17 - pos_n13 - 20 z_n13n17 >= -21.01
pos_n13 <= 19
pos_n17 <= 19
pos_n5 - pos_n13 + 20 z_n5n13 <= 21.01
pos_n5 - pos_n13 - 20 z_n5n13 >= -21.01
pos_n13 <= 19
pos_n5 <= 19
pos_n15 - pos_n14 + 20 z_n14n15 <= 21.01
pos_n15 - pos_n14 - 20 z_n14n15 >= -21.01
pos_n14 <= 19
pos_n15 <= 19
pos_n17 - pos_n14 + 20 z_n14n17 <= 21.01
pos_n17 - pos_n14 - 20 z_n14n17 >= -21.01
pos_n14 <= 19
pos_n17 <= 19
pos_n5 - pos_n14 + 20 z_n5n14 <= 21.01
pos_n5 - pos_n14 - 20 z_n5n14 >= -21.01
pos_n14 <= 19
pos_n5 <= 19
pos_n17 - pos_n15 + 20 z_n15n17 <= 21.01
pos_n17 - pos_n15 - 20 z_n15n17 >= -21.01
pos_n15 <= 19
pos_n17 <= 19
pos_n5 - pos_n15 + 20 z_n5n15 <= 21.01
pos_n5 - pos_n15 - 20 z_n5n15 >= -21.01
pos_n15 <= 19
pos_n5 <= 19
pos_n5 - pos_n17 + 20 z_n5n17 <= 21.01
pos_n5 - pos_n17 - 20 z_n5n17 >= -21.01
pos_n17 <= 19
pos_n5 <= 19
pos_n14 - pos_n13 + 20 z_n13n14 <= 21.01
pos_n14 - pos_n13 - 20 z_n13n14 >= -21.01
pos_n13 <= 19
pos_n14 <= 19
pos_n15 - pos_n13 + 20 z_n13n15 <= 21.01
pos_n15 - pos_n13 - 20 z_n13n15 >= -21.01
pos_n13 <= 19
pos_n15 <= 19
pos_n16 - pos_n13 + 20 z_n13n16 <= 21.01
pos_n16 - pos_n13 - 20 z_n13n16 >= -21.01
pos_n13 <= 19
pos_n16 <= 19
pos_n18 - pos_n13 + 20 z_n13n18 <= 21.01
pos_n18 - pos_n13 - 20 z_n13n18 >= -21.01
pos_n13 <= 19
pos_n18 <= 19
pos_n5 - pos_n13 + 20 z_n5n13 <= 21.01
pos_n5 - pos_n13 - 20 z_n5n13 >= -21.01
pos_n13 <= 19
pos_n5 <= 19
pos_n15 - pos_n14 + 20 z_n14n15 <= 21.01
pos_n15 - pos_n14 - 20 z_n14n15 >= -21.01
pos_n14 <= 19
pos_n15 <= 19
pos_n16 - pos_n14 + 20 z_n14n16 <= 21.01
pos_n16 - pos_n14 - 20 z_n14n16 >= -21.01
pos_n14 <= 19
pos_n16 <= 19
pos_n18 - pos_n14 + 20 z_n14n18 <= 21.01
pos_n18 - pos_n14 - 20 z_n14n18 >= -21.01
pos_n14 <= 19
pos_n18 <= 19
pos_n5 - pos_n14 + 20 z_n5n14 <= 21.01
pos_n5 - pos_n14 - 20 z_n5n14 >= -21.01
pos_n14 <= 19
pos_n5 <= 19
pos_n16 - pos_n15 + 20 z_n15n16 <= 21.01
pos_n16 - pos_n15 - 20 z_n15n16 >= -21.01
pos_n15 <= 19
pos_n16 <= 19
pos_n18 - pos_n15 + 20 z_n15n18 <= 21.01
pos_n18 - pos_n15 - 20 z_n15n18 >= -21.01
pos_n15 <= 19
pos_n18 <= 19
pos_n5 - pos_n15 + 20 z_n5n15 <= 21.01
pos_n5 - pos_n15 - 20 z_n5n15 >= -21.01
pos_n15 <= 19
pos_n5 <= 19
pos_n18 - pos_n16 + 20 z_n16n18 <= 21.01
pos_n18 - pos_n16 - 20 z_n16n18 >= -21.01
pos_n16 <= 19
pos_n18 <= 19
pos_n5 - pos_n16 + 20 z_n5n16 <= 21.01
pos_n5 - pos_n16 - 20 z_n5n16 >= -21.01
pos_n16 <= 19
pos_n5 <= 19
pos_n5 - pos_n18 + 20 z_n5n18 <= 21.01
pos_n5 - pos_n18 - 20 z_n5n18 >= -21.01
pos_n18 <= 19
pos_n5 <= 19
pos_n15 - pos_n14 + 20 z_n14n15 <= 21.01
pos_n15 - pos_n14 - 20 z_n14n15 >= -21.01
pos_n14 <= 19
pos_n15 <= 19
pos_n17 - pos_n14 + 20 z_n14n17 <= 21.01
pos_n17 - pos_n14 - 20 z_n14n17 >= -21.01
pos_n14 <= 19
pos_n17 <= 19
pos_n1 - pos_n14 + 20 z_n1n14 <= 21.01
pos_n1 - pos_n14 - 20 z_n1n14 >= -21.01
pos_n14 <= 19
pos_n1 <= 19
pos_n12 - pos_n14 + 20 z_n12n14 <= 21.01
pos_n12 - pos_n14 - 20 z_n12n14 >= -21.01
pos_n14 <= 19
pos_n12 <= 19
pos_n17 - pos_n15 + 20 z_n15n17 <= 21.01
pos_n17 - pos_n15 - 20 z_n15n17 >= -21.01
pos_n15 <= 19
pos_n17 <= 19
pos_n1 - pos_n15 + 20 z_n1n15 <= 21.01
pos_n1 - pos_n15 - 20 z_n1n15 >= -21.01
pos_n15 <= 19
pos_n1 <= 19
pos_n12 - pos_n15 + 20 z_n12n15 <= 21.01
pos_n12 - pos_n15 - 20 z_n12n15 >= -21.01
pos_n15 <= 19
pos_n12 <= 19
pos_n1 - pos_n17 + 20 z_n1n17 <= 21.01
pos_n1 - pos_n17 - 20 z_n1n17 >= -21.01
pos_n17 <= 19
pos_n1 <= 19
pos_n12 - pos_n17 + 20 z_n12n17 <= 21.01
pos_n12 - pos_n17 - 20 z_n12n17 >= -21.01
pos_n17 <= 19
pos_n12 <= 19
pos_n12 - pos_n1 + 20 z_n1n12 <= 21.01
pos_n12 - pos_n1 - 20 z_n1n12 >= -21.01
pos_n1 <= 19
pos_n12 <= 19
c_n0n1n2n3 - z_n0n1 - z_n0n2 - z_n0n3 - z_n1n2 - z_n1n3 - z_n2n3 = 1 
c_n4n5n6n7 - z_n4n5 - z_n4n6 - z_n4n7 - z_n5n6 - z_n5n7 - z_n6n7 = 1 
c_n5n16n17n13n14n15 - z_n5n16 - z_n5n17 - z_n5n13 - z_n5n14 - z_n5n15 - z_n16n17 - z_n13n16 - z_n14n16 - z_n15n16 - z_n13n17 - z_n14n17 - z_n15n17 - z_n13n14 - z_n13n15 - z_n14n15 = 1 
c_n8n9n10n11n12 - z_n8n9 - z_n8n10 - z_n8n11 - z_n8n12 - z_n9n10 - z_n9n11 - z_n9n12 - z_n10n11 - z_n10n12 - z_n11n12 = 1 
c_n13n14n15n17n18 - z_n13n14 - z_n13n15 - z_n13n17 - z_n13n18 - z_n14n15 - z_n14n17 - z_n14n18 - z_n15n17 - z_n15n18 - z_n17n18 = 1 
c_n1n2n3 - z_n1n2 - z_n1n3 - z_n2n3 = 1 
c_n0n2n3 - z_n0n2 - z_n0n3 - z_n2n3 = 1 
c_n0n1n3 - z_n0n1 - z_n0n3 - z_n1n3 = 1 
c_n0n1n2 - z_n0n1 - z_n0n2 - z_n1n2 = 1 
c_n5n6n7 - z_n5n6 - z_n5n7 - z_n6n7 = 1 
c_n4n6n7 - z_n4n6 - z_n4n7 - z_n6n7 = 1 
c_n4n5n7 - z_n4n5 - z_n4n7 - z_n5n7 = 1 
c_n4n5n6 - z_n4n5 - z_n4n6 - z_n5n6 = 1 
c_n16n17n13n14n15 - z_n16n17 - z_n13n16 - z_n14n16 - z_n15n16 - z_n13n17 - z_n14n17 - z_n15n17 - z_n13n14 - z_n13n15 - z_n14n15 = 1 
c_n5n17n13n14n15 - z_n5n17 - z_n5n13 - z_n5n14 - z_n5n15 - z_n13n17 - z_n14n17 - z_n15n17 - z_n13n14 - z_n13n15 - z_n14n15 = 1 
c_n5n16n13n14n15 - z_n5n16 - z_n5n13 - z_n5n14 - z_n5n15 - z_n13n16 - z_n14n16 - z_n15n16 - z_n13n14 - z_n13n15 - z_n14n15 = 1 
c_n5n16n17n14n15 - z_n5n16 - z_n5n17 - z_n5n14 - z_n5n15 - z_n16n17 - z_n14n16 - z_n15n16 - z_n14n17 - z_n15n17 - z_n14n15 = 1 
c_n5n16n17n13n15 - z_n5n16 - z_n5n17 - z_n5n13 - z_n5n15 - z_n16n17 - z_n13n16 - z_n15n16 - z_n13n17 - z_n15n17 - z_n13n15 = 1 
c_n5n16n17n13n14 - z_n5n16 - z_n5n17 - z_n5n13 - z_n5n14 - z_n16n17 - z_n13n16 - z_n14n16 - z_n13n17 - z_n14n17 - z_n13n14 = 1 
c_n9n10n11n12 - z_n9n10 - z_n9n11 - z_n9n12 - z_n10n11 - z_n10n12 - z_n11n12 = 1 
c_n8n10n11n12 - z_n8n10 - z_n8n11 - z_n8n12 - z_n10n11 - z_n10n12 - z_n11n12 = 1 
c_n8n9n11n12 - z_n8n9 - z_n8n11 - z_n8n12 - z_n9n11 - z_n9n12 - z_n11n12 = 1 
c_n8n9n10n12 - z_n8n9 - z_n8n10 - z_n8n12 - z_n9n10 - z_n9n12 - z_n10n12 = 1 
c_n8n9n10n11 - z_n8n9 - z_n8n10 - z_n8n11 - z_n9n10 - z_n9n11 - z_n10n11 = 1 
c_n14n15n17n18 - z_n14n15 - z_n14n17 - z_n14n18 - z_n15n17 - z_n15n18 - z_n17n18 = 1 
c_n13n15n17n18 - z_n13n15 - z_n13n17 - z_n13n18 - z_n15n17 - z_n15n18 - z_n17n18 = 1 
c_n13n14n17n18 - z_n13n14 - z_n13n17 - z_n13n18 - z_n14n17 - z_n14n18 - z_n17n18 = 1 
c_n13n14n15n18 - z_n13n14 - z_n13n15 - z_n13n18 - z_n14n15 - z_n14n18 - z_n15n18 = 1 
c_n13n14n15n17 - z_n13n14 - z_n13n15 - z_n13n17 - z_n14n15 - z_n14n17 - z_n15n17 = 1 
c_n16n13n14n15 - z_n13n16 - z_n14n16 - z_n15n16 - z_n13n14 - z_n13n15 - z_n14n15 = 1 
c_n16n17n14n15 - z_n16n17 - z_n14n16 - z_n15n16 - z_n14n17 - z_n15n17 - z_n14n15 = 1 
c_n16n17n13n15 - z_n16n17 - z_n13n16 - z_n15n16 - z_n13n17 - z_n15n17 - z_n13n15 = 1 
c_n16n17n13n14 - z_n16n17 - z_n13n16 - z_n14n16 - z_n13n17 - z_n14n17 - z_n13n14 = 1 
c_n5n13n14n15 - z_n5n13 - z_n5n14 - z_n5n15 - z_n13n14 - z_n13n15 - z_n14n15 = 1 
c_n5n17n14n15 - z_n5n17 - z_n5n14 - z_n5n15 - z_n14n17 - z_n15n17 - z_n14n15 = 1 
c_n5n17n13n15 - z_n5n17 - z_n5n13 - z_n5n15 - z_n13n17 - z_n15n17 - z_n13n15 = 1 
c_n5n17n13n14 - z_n5n17 - z_n5n13 - z_n5n14 - z_n13n17 - z_n14n17 - z_n13n14 = 1 
c_n5n16n14n15 - z_n5n16 - z_n5n14 - z_n5n15 - z_n14n16 - z_n15n16 - z_n14n15 = 1 
c_n5n16n13n15 - z_n5n16 - z_n5n13 - z_n5n15 - z_n13n16 - z_n15n16 - z_n13n15 = 1 
c_n5n16n13n14 - z_n5n16 - z_n5n13 - z_n5n14 - z_n13n16 - z_n14n16 - z_n13n14 = 1 
c_n5n16n17n15 - z_n5n16 - z_n5n17 - z_n5n15 - z_n16n17 - z_n15n16 - z_n15n17 = 1 
c_n5n16n17n14 - z_n5n16 - z_n5n17 - z_n5n14 - z_n16n17 - z_n14n16 - z_n14n17 = 1 
c_n5n16n17n13 - z_n5n16 - z_n5n17 - z_n5n13 - z_n16n17 - z_n13n16 - z_n13n17 = 1 
c_n10n11n12 - z_n10n11 - z_n10n12 - z_n11n12 = 1 
c_n9n11n12 - z_n9n11 - z_n9n12 - z_n11n12 = 1 
c_n9n10n12 - z_n9n10 - z_n9n12 - z_n10n12 = 1 
c_n9n10n11 - z_n9n10 - z_n9n11 - z_n10n11 = 1 
c_n8n11n12 - z_n8n11 - z_n8n12 - z_n11n12 = 1 
c_n8n10n12 - z_n8n10 - z_n8n12 - z_n10n12 = 1 
c_n8n10n11 - z_n8n10 - z_n8n11 - z_n10n11 = 1 
c_n8n9n12 - z_n8n9 - z_n8n12 - z_n9n12 = 1 
c_n8n9n11 - z_n8n9 - z_n8n11 - z_n9n11 = 1 
c_n8n9n10 - z_n8n9 - z_n8n10 - z_n9n10 = 1 
c_n15n17n18 - z_n15n17 - z_n15n18 - z_n17n18 = 1 
c_n14n17n18 - z_n14n17 - z_n14n18 - z_n17n18 = 1 
c_n14n15n18 - z_n14n15 - z_n14n18 - z_n15n18 = 1 
c_n14n15n17 - z_n14n15 - z_n14n17 - z_n15n17 = 1 
c_n13n17n18 - z_n13n17 - z_n13n18 - z_n17n18 = 1 
c_n13n15n18 - z_n13n15 - z_n13n18 - z_n15n18 = 1 
c_n13n15n17 - z_n13n15 - z_n13n17 - z_n15n17 = 1 
c_n13n14n18 - z_n13n14 - z_n13n18 - z_n14n18 = 1 
c_n13n14n17 - z_n13n14 - z_n13n17 - z_n14n17 = 1 
c_n13n14n15 - z_n13n14 - z_n13n15 - z_n14n15 = 1 
c_n16n14n15 - z_n14n16 - z_n15n16 - z_n14n15 = 1 
c_n16n13n15 - z_n13n16 - z_n15n16 - z_n13n15 = 1 
c_n16n13n14 - z_n13n16 - z_n14n16 - z_n13n14 = 1 
c_n16n17n15 - z_n16n17 - z_n15n16 - z_n15n17 = 1 
c_n16n17n14 - z_n16n17 - z_n14n16 - z_n14n17 = 1 
c_n16n17n13 - z_n16n17 - z_n13n16 - z_n13n17 = 1 
c_n5n14n15 - z_n5n14 - z_n5n15 - z_n14n15 = 1 
c_n5n13n15 - z_n5n13 - z_n5n15 - z_n13n15 = 1 
c_n5n13n14 - z_n5n13 - z_n5n14 - z_n13n14 = 1 
c_n5n17n15 - z_n5n17 - z_n5n15 - z_n15n17 = 1 
c_n5n17n14 - z_n5n17 - z_n5n14 - z_n14n17 = 1 
c_n5n17n13 - z_n5n17 - z_n5n13 - z_n13n17 = 1 
c_n5n16n15 - z_n5n16 - z_n5n15 - z_n15n16 = 1 
c_n5n16n14 - z_n5n16 - z_n5n14 - z_n14n16 = 1 
c_n5n16n13 - z_n5n16 - z_n5n13 - z_n13n16 = 1 
c_n5n16n17 - z_n5n16 - z_n5n17 - z_n16n17 = 1 

Bounds 
binary y_n0n1
binary y_n0n2
binary y_n0n3
binary y_n0n4
binary y_n0n5
binary y_n0n6
binary y_n0n7
binary y_n0n8
binary y_n0n9
binary y_n0n10
binary y_n0n11
binary y_n0n12
binary y_n0n13
binary y_n0n14
binary y_n0n15
binary y_n0n16
binary y_n0n17
binary y_n0n18
binary y_n1n2
binary y_n1n3
binary y_n1n4
binary y_n1n5
binary y_n1n6
binary y_n1n7
binary y_n1n8
binary y_n1n9
binary y_n1n10
binary y_n1n11
binary y_n1n12
binary y_n1n13
binary y_n1n14
binary y_n1n15
binary y_n1n16
binary y_n1n17
binary y_n1n18
binary y_n2n3
binary y_n2n4
binary y_n2n5
binary y_n2n6
binary y_n2n7
binary y_n2n8
binary y_n2n9
binary y_n2n10
binary y_n2n11
binary y_n2n12
binary y_n2n13
binary y_n2n14
binary y_n2n15
binary y_n2n16
binary y_n2n17
binary y_n2n18
binary y_n3n4
binary y_n3n5
binary y_n3n6
binary y_n3n7
binary y_n3n8
binary y_n3n9
binary y_n3n10
binary y_n3n11
binary y_n3n12
binary y_n3n13
binary y_n3n14
binary y_n3n15
binary y_n3n16
binary y_n3n17
binary y_n3n18
binary y_n4n5
binary y_n4n6
binary y_n4n7
binary y_n4n8
binary y_n4n9
binary y_n4n10
binary y_n4n11
binary y_n4n12
binary y_n4n13
binary y_n4n14
binary y_n4n15
binary y_n4n16
binary y_n4n17
binary y_n4n18
binary y_n5n6
binary y_n5n7
binary y_n5n8
binary y_n5n9
binary y_n5n10
binary y_n5n11
binary y_n5n12
binary y_n5n13
binary y_n5n14
binary y_n5n15
binary y_n5n16
binary y_n5n17
binary y_n5n18
binary y_n6n7
binary y_n6n8
binary y_n6n9
binary y_n6n10
binary y_n6n11
binary y_n6n12
binary y_n6n13
binary y_n6n14
binary y_n6n15
binary y_n6n16
binary y_n6n17
binary y_n6n18
binary y_n7n8
binary y_n7n9
binary y_n7n10
binary y_n7n11
binary y_n7n12
binary y_n7n13
binary y_n7n14
binary y_n7n15
binary y_n7n16
binary y_n7n17
binary y_n7n18
binary y_n8n9
binary y_n8n10
binary y_n8n11
binary y_n8n12
binary y_n8n13
binary y_n8n14
binary y_n8n15
binary y_n8n16
binary y_n8n17
binary y_n8n18
binary y_n9n10
binary y_n9n11
binary y_n9n12
binary y_n9n13
binary y_n9n14
binary y_n9n15
binary y_n9n16
binary y_n9n17
binary y_n9n18
binary y_n10n11
binary y_n10n12
binary y_n10n13
binary y_n10n14
binary y_n10n15
binary y_n10n16
binary y_n10n17
binary y_n10n18
binary y_n11n12
binary y_n11n13
binary y_n11n14
binary y_n11n15
binary y_n11n16
binary y_n11n17
binary y_n11n18
binary y_n12n13
binary y_n12n14
binary y_n12n15
binary y_n12n16
binary y_n12n17
binary y_n12n18
binary y_n13n14
binary y_n13n15
binary y_n13n16
binary y_n13n17
binary y_n13n18
binary y_n14n15
binary y_n14n16
binary y_n14n17
binary y_n14n18
binary y_n15n16
binary y_n15n17
binary y_n15n18
binary y_n16n17
binary y_n16n18
binary y_n17n18
binary z_n1n2
binary z_n1n3
binary z_n1n9
binary z_n2n3
binary z_n2n9
binary z_n3n9
binary z_n0n2
binary z_n0n3
binary z_n0n18
binary z_n2n3
binary z_n2n18
binary z_n3n18
binary z_n0n1
binary z_n0n1
binary z_n1n6
binary z_n0n6
binary z_n5n6
binary z_n5n10
binary z_n6n10
binary z_n4n6
binary z_n4n7
binary z_n4n16
binary z_n4n17
binary z_n6n7
binary z_n6n16
binary z_n6n17
binary z_n7n16
binary z_n7n17
binary z_n16n17
binary z_n4n5
binary z_n4n7
binary z_n3n4
binary z_n5n7
binary z_n3n5
binary z_n3n7
binary z_n5n6
binary z_n5n8
binary z_n5n13
binary z_n6n8
binary z_n6n13
binary z_n8n13
binary z_n9n12
binary z_n7n9
binary z_n7n12
binary z_n8n10
binary z_n8n11
binary z_n8n12
binary z_n0n8
binary z_n10n11
binary z_n10n12
binary z_n0n10
binary z_n11n12
binary z_n0n11
binary z_n0n12
binary z_n9n11
binary z_n9n12
binary z_n4n9
binary z_n11n12
binary z_n4n11
binary z_n4n12
binary z_n9n10
binary z_n9n12
binary z_n10n12
binary z_n8n9
binary z_n8n10
binary z_n8n11
binary z_n8n18
binary z_n9n10
binary z_n9n11
binary z_n9n18
binary z_n10n11
binary z_n10n18
binary z_n11n18
binary z_n14n15
binary z_n14n16
binary z_n14n17
binary z_n7n14
binary z_n15n16
binary z_n15n17
binary z_n7n15
binary z_n16n17
binary z_n7n16
binary z_n7n17
binary z_n13n15
binary z_n13n16
binary z_n13n17
binary z_n13n18
binary z_n15n16
binary z_n15n17
binary z_n15n18
binary z_n16n17
binary z_n16n18
binary z_n17n18
binary z_n13n14
binary z_n13n16
binary z_n13n17
binary z_n13n18
binary z_n14n16
binary z_n14n17
binary z_n14n18
binary z_n16n17
binary z_n16n18
binary z_n17n18
binary z_n13n14
binary z_n13n15
binary z_n13n17
binary z_n5n13
binary z_n14n15
binary z_n14n17
binary z_n5n14
binary z_n15n17
binary z_n5n15
binary z_n5n17
binary z_n13n14
binary z_n13n15
binary z_n13n16
binary z_n13n18
binary z_n5n13
binary z_n14n15
binary z_n14n16
binary z_n14n18
binary z_n5n14
binary z_n15n16
binary z_n15n18
binary z_n5n15
binary z_n16n18
binary z_n5n16
binary z_n5n18
binary z_n14n15
binary z_n14n17
binary z_n1n14
binary z_n12n14
binary z_n15n17
binary z_n1n15
binary z_n12n15
binary z_n1n17
binary z_n12n17
binary z_n1n12

End
